LAMMPS (29 Aug 2024 - Update 3)
OMP_NUM_THREADS environment is not set. Defaulting to 1 thread. (src/comm.cpp:99)
  using 1 OpenMP thread(s) per MPI task
Loaded 0 plugins from D:\Programs\LAMMPS USER-REBOMOS Plugin 29Aug2024-MSMPI
Loaded 1 plugins from D:\Programs\LAMMPS\plugins
# ===================================================================================
# 2D Bidisperse Granular System (frictionless)
#
# N=512, diameter ratio = 1:1.4
# Contact Model: Hooke contact + Damped dynamics relaxation (注意granular不支持FIRE)
# Oprating System: Windows
# ===================================================================================


# Step 0: 接受外部参数
variable        compress_rate index 0.1    # 首先,随便给一个浮点数,Lammps会自动把传进来的参数转化为浮点数
variable        compress_loop equal floor(1.0/v_compress_rate)
variable        pressfile string compress_rate/compress_rate_${compress_rate}/press_phi_compress_rate_${compress_rate}.txt
variable        pressfile string compress_rate/compress_rate_0.0001/press_phi_compress_rate_${compress_rate}.txt
variable        pressfile string compress_rate/compress_rate_0.0001/press_phi_compress_rate_0.0001.txt
variable        logfile   string compress_rate/compress_rate_${compress_rate}/log_compress_rate_${compress_rate}.txt
variable        logfile   string compress_rate/compress_rate_0.0001/log_compress_rate_${compress_rate}.txt
variable        logfile   string compress_rate/compress_rate_0.0001/log_compress_rate_0.0001.txt
variable        trajfile  string compress_rate/compress_rate_${compress_rate}/traj_compress_rate_${compress_rate}.xyz
variable        trajfile  string compress_rate/compress_rate_0.0001/traj_compress_rate_${compress_rate}.xyz
variable        trajfile  string compress_rate/compress_rate_0.0001/traj_compress_rate_0.0001.xyz



# Step 1: 单位规制
clear
OMP_NUM_THREADS environment is not set. Defaulting to 1 thread. (src/comm.cpp:99)
  using 1 OpenMP thread(s) per MPI task
Loaded 0 plugins from D:\Programs\LAMMPS USER-REBOMOS Plugin 29Aug2024-MSMPI
Loaded 1 plugins from D:\Programs\LAMMPS\plugins
units           lj        # 这里说明的是长度、时间是无量纲、归一化单位
dimension       2
boundary        p p p
atom_style      sphere
# newton、comm_modify是"颗粒接触模型"的必要设置
newton          off
comm_modify     vel yes



# Step 2: 参数设置
# 外部脚本传入随机数种子
variable        seed equal 12345
variable        seed2 equal ${seed}+24681
variable        seed2 equal 12345+24681
# 实验体系 N=512
variable        N1 equal 256
variable        N2 equal 256
variable        N  equal ${N1}+${N2}
variable        N  equal 256+${N2}
variable        N  equal 256+256
variable        d1 equal 1.0
variable        d2 equal 1.4
variable        rho equal 1.0
# 计算盒子边长
variable        phi0 equal 0.50                    # 初始体积分数设低一些，避免严重重叠
variable        pi equal 3.141592653589793         # LAMMPS 里没有内置 π
variable        A1 equal ${N1}*${pi}*(${d1}*0.5)^2
variable        A1 equal 256*${pi}*(${d1}*0.5)^2
variable        A1 equal 256*3.14159265358979*(${d1}*0.5)^2
variable        A1 equal 256*3.14159265358979*(1*0.5)^2
variable        A2 equal ${N2}*${pi}*(${d2}*0.5)^2
variable        A2 equal 256*${pi}*(${d2}*0.5)^2
variable        A2 equal 256*3.14159265358979*(${d2}*0.5)^2
variable        A2 equal 256*3.14159265358979*(1.4*0.5)^2
variable        Area equal ${A1}+${A2}
variable        Area equal 201.061929829747+${A2}
variable        Area equal 201.061929829747+394.081382466303
variable        L0 equal sqrt(v_Area/v_phi0)       # 等价于sqrt(${Area}/${phi0})
variable        L0_fmt format L0 "%.2f"



# Step 3: 创建模拟盒,随机插入粒子
region          box block 0 ${L0} 0 ${L0} -0.1 0.1 units box
region          box block 0 34.5005307871067 0 ${L0} -0.1 0.1 units box
region          box block 0 34.5005307871067 0 34.5005307871067 -0.1 0.1 units box
print           "================== Create box and atoms... =================="
================== Create box and atoms... ==================
create_box      2 box
Created orthogonal box = (0 0 -0.1) to (34.500531 34.500531 0.1)
  4 by 2 by 1 MPI processor grid
create_atoms    1 random ${N1} ${seed}  box
create_atoms    1 random 256 ${seed}  box
create_atoms    1 random 256 12345  box
Created 256 atoms
  using lattice units in orthogonal box = (0 0 -0.1) to (34.500531 34.500531 0.1)
  create_atoms CPU = 0.001 seconds
create_atoms    2 random ${N2} ${seed2} box
create_atoms    2 random 256 ${seed2} box
create_atoms    2 random 256 37026 box
Created 256 atoms
  using lattice units in orthogonal box = (0 0 -0.1) to (34.500531 34.500531 0.1)
  create_atoms CPU = 0.000 seconds
# 设置粒子属性
set             type 1 diameter ${d1}
set             type 1 diameter 1
Setting atom values ...
  256 settings made for diameter
set             type 1 density  ${rho}      # 设置粒子密度,Lammps会自动计算质量和转动惯量
set             type 1 density  1      
Setting atom values ...
  256 settings made for density
set             type 2 diameter ${d2}
set             type 2 diameter 1.4
Setting atom values ...
  256 settings made for diameter
set             type 2 density  ${rho}
set             type 2 density  1
Setting atom values ...
  256 settings made for density
print           "============================================================"
============================================================
# 强制二维运动
fix             planar all enforce2d        # 关键:强制所有粒子只能在z=0平面内运动



# Step 4: 定义相互作用/接触模型
pair_style      gran/hooke/history 2.0e4 0.0 100.0 0.0 0.0 1
pair_coeff      * *
neighbor        0.5 bin
neigh_modify    delay 0 every 1 check yes
# 设置松弛方式:  "阻尼动力学松弛"(FIRE能量最小化的替代方案)
fix             integrator all nve/sphere  # 因为系统粒子的atom_style sphere,不能用普通nve
fix             damp all viscous 20.0



# Step 5: 定义观测量
compute         ke_trans all ke
compute         ke_rot   all erotate/sphere
variable        KE    equal "c_ke_trans"             # 系统-平动动能
variable        KEr   equal "c_ke_rot"               # 系统-转动动能
variable        phi   equal "v_Area/(lx*ly)"         # 当前体积分数,从L0 -> 1
variable        KEtot equal "c_ke_trans + c_ke_rot"  # 系统总动能
variable        pr    equal "press"                  # 系统压力
# 记录和盒子相关变量
variable        st    equal "step"                   # 当前步数
variable        lxv   equal "lx"                     # 当前盒子长度x
variable        lyv   equal "ly"                     # 当前盒子长度y


# Step 6: 控制输出内容
# (1)基本参数输出
print           "================== Simulation Parameters ==================" append ${logfile}
print           "================== Simulation Parameters ==================" append compress_rate/compress_rate_0.0001/log_compress_rate_0.0001.txt
================== Simulation Parameters ==================
print           "L0 = ${L0_fmt}"  append ${logfile}
print           "L0 = ${L0_fmt}"  append compress_rate/compress_rate_0.0001/log_compress_rate_0.0001.txt
L0 = 34.50
print           "N = ${N}, N1 = ${N1}, N2 = ${N2}" append ${logfile}
print           "N = ${N}, N1 = ${N1}, N2 = ${N2}" append compress_rate/compress_rate_0.0001/log_compress_rate_0.0001.txt
N = 512, N1 = 256, N2 = 256
print           "phi = ${phi0}"  append ${logfile}
print           "phi = ${phi0}"  append compress_rate/compress_rate_0.0001/log_compress_rate_0.0001.txt
phi = 0.5
print           "seed = ${seed}"  append ${logfile}
print           "seed = ${seed}"  append compress_rate/compress_rate_0.0001/log_compress_rate_0.0001.txt
seed = 12345
print           "compress_rate = ${compress_rate}" append ${logfile}
print           "compress_rate = ${compress_rate}" append compress_rate/compress_rate_0.0001/log_compress_rate_0.0001.txt
compress_rate = 0.0001
print           "===========================================================" append ${logfile}
print           "===========================================================" append compress_rate/compress_rate_0.0001/log_compress_rate_0.0001.txt
===========================================================
# (2)热力学输出(每5000步输出一轮):
thermo          5000
thermo_style    custom step atoms lx ly v_phi press ke c_ke_rot
# (3)轨迹输出(每5000步输出一次,用Ovito可视化)
dump            traj all custom 5000 ${trajfile} id type x y z radius vx vy vz fx fy fz
dump            traj all custom 5000 compress_rate/compress_rate_0.0001/traj_compress_rate_0.0001.xyz id type x y z radius vx vy vz fx fy fz
dump_modify     traj sort id                         # 让每帧按粒子id排序,对后处理很方便




# Step 7: 运行模拟
# Step 7.1: 松弛
print           "================== Stage 1: initial relaxation =================="  append ${logfile}
print           "================== Stage 1: initial relaxation =================="  append compress_rate/compress_rate_0.0001/log_compress_rate_0.0001.txt
================== Stage 1: initial relaxation ==================
timestep        5.0e-5
run             50000
Generated 0 of 1 mixed pair_coeff terms from geometric mixing rule
Neighbor list info ...
  update: every = 1 steps, delay = 0 steps, check = yes
  max neighbors/atom: 2000, page size: 100000
  master list distance cutoff = 1.9
  ghost atom cutoff = 1.9
  binsize = 0.95, bins = 37 37 1
  1 neighbor lists, perpetual/occasional/extra = 1 0 0
  (1) pair gran/hooke/history, perpetual
      attributes: half, newton off, size, history
      pair build: half/size/bin/atomonly/newtoff
      stencil: full/bin/2d
      bin: standard
Per MPI rank memory allocation (min/avg/max) = 9.968 | 9.969 | 9.969 Mbytes
   Step        Atoms          Lx             Ly           v_phi          Press          KinEng        c_ke_rot   
         0         512   34.500531      34.500531      0.5            1091.736       0              0            
      5000         512   34.500531      34.500531      0.5            0.21905556     0.083465563    0            
     10000         512   34.500531      34.500531      0.5           -5.3135819e-05  6.9273319e-05  0            
     15000         512   34.500531      34.500531      0.5            3.7354609e-06  6.5203785e-08  0            
     20000         512   34.500531      34.500531      0.5            4.2149203e-08  6.1676181e-11  0            
     25000         512   34.500531      34.500531      0.5            7.5780348e-10  5.8361937e-14  0            
     30000         512   34.500531      34.500531      0.5            1.7758739e-11  5.5230775e-17  0            
     35000         512   34.500531      34.500531      0.5            6.0457846e-12  5.2278967e-20  0            
     40000         512   34.500531      34.500531      0.5            4.5493263e-12  6.9767013e-23  0            
     45000         512   34.500531      34.500531      0.5            4.1264779e-12  1.6261593e-23  0            
     50000         512   34.500531      34.500531      0.5            4.1273078e-12  1.6177291e-23  0            
Loop time of 0.446385 on 8 procs for 50000 steps with 512 atoms

Performance: 483886.821 tau/day, 112010.838 timesteps/s, 57.350 Matom-step/s
93.6% CPU use with 8 MPI tasks x 1 OpenMP threads

MPI task timing breakdown:
Section |  min time  |  avg time  |  max time  |%varavg| %total
---------------------------------------------------------------
Pair    | 0.032189   | 0.036693   | 0.04241    |   1.6 |  8.22
Neigh   | 0.00021    | 0.00027125 | 0.000388   |   0.0 |  0.06
Comm    | 0.18103    | 0.18963    | 0.19695    |   1.3 | 42.48
Output  | 0.004897   | 0.0058941  | 0.006956   |   0.8 |  1.32
Modify  | 0.056134   | 0.061326   | 0.064293   |   1.1 | 13.74
Other   |            | 0.1526     |            |       | 34.18

Nlocal:             64 ave          68 max          59 min
Histogram: 1 0 1 1 0 0 3 0 1 1
Nghost:           47.5 ave          54 max          35 min
Histogram: 1 0 0 1 0 1 1 0 1 3
Neighs:        131.375 ave         154 max         113 min
Histogram: 2 0 2 0 1 0 0 1 0 2

Total # of neighbors = 1051
Ave neighs/atom = 2.0527344
Neighbor list builds = 21
Dangerous builds = 0

# Step 7.2 AQS循环压缩
print           "================= Stage 2: Compression Loop... =================="  append ${logfile}
print           "================= Stage 2: Compression Loop... =================="  append compress_rate/compress_rate_0.0001/log_compress_rate_0.0001.txt
================= Stage 2: Compression Loop... ==================
print           "cycle step phi press KEtotal"  append ${logfile}
print           "cycle step phi press KEtotal"  append compress_rate/compress_rate_0.0001/log_compress_rate_0.0001.txt
cycle step phi press KEtotal
print           "cycle step phi press KEtotal"  append ${pressfile}
print           "cycle step phi press KEtotal"  append compress_rate/compress_rate_0.0001/press_phi_compress_rate_0.0001.txt
cycle step phi press KEtotal
# 压缩参数
variable        ncycle equal 150
variable        scale  equal 0.998

# --------------------------------------------------------------------------------
# 编写循环压缩代码: loop_compress
label           loop_compress
variable        i loop ${ncycle}
variable        i loop 150
# @before(压缩之前的我不关注)
change_box      all x scale ${scale} y scale ${scale} remap units box
change_box      all x scale 0.998 y scale ${scale} remap units box
change_box      all x scale 0.998 y scale 0.998 remap units box
Changing box ...
  orthogonal box = (0.034500531 0 -0.1) to (34.46603 34.500531 0.1)
  orthogonal box = (0.034500531 0.034500531 -0.1) to (34.46603 34.46603 0.1)
velocity        all set 0.0 0.0 0.0       # 压缩后清零速度，避免把上一轮残余动量带进来
# @after
run             ${compress_loop}        # 每轮给足够松弛时间
run             10000        
Generated 0 of 1 mixed pair_coeff terms from geometric mixing rule
Per MPI rank memory allocation (min/avg/max) = 11.24 | 11.24 | 11.24 Mbytes
   Step        Atoms          Lx             Ly           v_phi          Press          KinEng        c_ke_rot   
     50000         512   34.43153       34.43153       0.50200602     2.6795242      0              0            
     55000         512   34.43153       34.43153       0.50200602     8.6058129e-07  1.9926663e-06  0            
     60000         512   34.43153       34.43153       0.50200602     8.1468226e-10  1.8863876e-09  0            
Loop time of 0.0923406 on 8 procs for 10000 steps with 512 atoms

Performance: 467833.091 tau/day, 108294.697 timesteps/s, 55.447 Matom-step/s
101.5% CPU use with 8 MPI tasks x 1 OpenMP threads

MPI task timing breakdown:
Section |  min time  |  avg time  |  max time  |%varavg| %total
---------------------------------------------------------------
Pair    | 0.00461    | 0.0053892  | 0.005918   |   0.6 |  5.84
Neigh   | 0          | 0          | 0          |   0.0 |  0.00
Comm    | 0.038308   | 0.039978   | 0.042117   |   0.6 | 43.29
Output  | 0.000546   | 0.00070775 | 0.000835   |   0.0 |  0.77
Modify  | 0.011605   | 0.012696   | 0.013491   |   0.5 | 13.75
Other   |            | 0.03357    |            |       | 36.35

Nlocal:             64 ave          67 max          60 min
Histogram: 1 1 1 0 0 0 0 3 0 2
Nghost:          47.75 ave          54 max          35 min
Histogram: 1 0 0 1 0 1 1 0 1 3
Neighs:        132.375 ave         155 max         116 min
Histogram: 2 2 0 1 0 0 0 1 0 2

Total # of neighbors = 1059
Ave neighs/atom = 2.0683594
Neighbor list builds = 0
Dangerous builds = 0
print           "${i} ${st} ${phi} ${pr} ${KEtot}" append ${logfile}
print           "${i} ${st} ${phi} ${pr} ${KEtot}" append compress_rate/compress_rate_0.0001/log_compress_rate_0.0001.txt
1 60000 0.502006016040097 8.14682255719804e-10 9.65830449528267e-07
print           "${i} ${st} ${phi} ${pr} ${KEtot}" append ${pressfile}
print           "${i} ${st} ${phi} ${pr} ${KEtot}" append compress_rate/compress_rate_0.0001/press_phi_compress_rate_0.0001.txt
1 60000 0.502006016040097 8.14682255719804e-10 9.65830449528267e-07
next            i
jump            SELF loop_compress
variable        i loop ${ncycle}
variable        i loop 150
# @before(压缩之前的我不关注)
change_box      all x scale ${scale} y scale ${scale} remap units box
change_box      all x scale 0.998 y scale ${scale} remap units box
change_box      all x scale 0.998 y scale 0.998 remap units box
Changing box ...
  orthogonal box = (0.068932061 0.034500531 -0.1) to (34.431599 34.46603 0.1)
  orthogonal box = (0.068932061 0.068932061 -0.1) to (34.431599 34.431599 0.1)
velocity        all set 0.0 0.0 0.0       # 压缩后清零速度，避免把上一轮残余动量带进来
# @after
run             ${compress_loop}        # 每轮给足够松弛时间
run             10000        
Generated 0 of 1 mixed pair_coeff terms from geometric mixing rule
Per MPI rank memory allocation (min/avg/max) = 11.24 | 11.24 | 11.24 Mbytes
   Step        Atoms          Lx             Ly           v_phi          Press          KinEng        c_ke_rot   
     60000         512   34.362667      34.362667      0.50402008     0.28904356     0              0            
     65000         512   34.362667      34.362667      0.50402008     1.0387017e-07  2.3954912e-07  0            
     70000         512   34.362667      34.362667      0.50402008     9.8331248e-11  2.2677507e-10  0            
Loop time of 0.0761086 on 8 procs for 10000 steps with 512 atoms

Performance: 567609.781 tau/day, 131391.153 timesteps/s, 67.272 Matom-step/s
100.1% CPU use with 8 MPI tasks x 1 OpenMP threads

MPI task timing breakdown:
Section |  min time  |  avg time  |  max time  |%varavg| %total
---------------------------------------------------------------
Pair    | 0.004273   | 0.0047856  | 0.005303   |   0.5 |  6.29
Neigh   | 0          | 0          | 0          |   0.0 |  0.00
Comm    | 0.033552   | 0.034385   | 0.035713   |   0.3 | 45.18
Output  | 0.000378   | 0.00062613 | 0.000778   |   0.0 |  0.82
Modify  | 0.011435   | 0.012146   | 0.01285    |   0.4 | 15.96
Other   |            | 0.02417    |            |       | 31.75

Nlocal:             64 ave          67 max          59 min
Histogram: 1 0 1 0 0 1 0 3 0 2
Nghost:           47.5 ave          54 max          35 min
Histogram: 1 0 0 1 1 0 1 0 1 3
Neighs:        133.125 ave         157 max         116 min
Histogram: 2 2 0 0 1 0 1 0 0 2

Total # of neighbors = 1065
Ave neighs/atom = 2.0800781
Neighbor list builds = 0
Dangerous builds = 0
print           "${i} ${st} ${phi} ${pr} ${KEtot}" append ${logfile}
print           "${i} ${st} ${phi} ${pr} ${KEtot}" append compress_rate/compress_rate_0.0001/log_compress_rate_0.0001.txt
2 70000 0.5040200802809 9.83312476833973e-11 1.16108835219195e-07
print           "${i} ${st} ${phi} ${pr} ${KEtot}" append ${pressfile}
print           "${i} ${st} ${phi} ${pr} ${KEtot}" append compress_rate/compress_rate_0.0001/press_phi_compress_rate_0.0001.txt
2 70000 0.5040200802809 9.83312476833973e-11 1.16108835219195e-07
next            i
jump            SELF loop_compress
variable        i loop ${ncycle}
variable        i loop 150
# @before(压缩之前的我不关注)
change_box      all x scale ${scale} y scale ${scale} remap units box
change_box      all x scale 0.998 y scale ${scale} remap units box
change_box      all x scale 0.998 y scale 0.998 remap units box
Changing box ...
  orthogonal box = (0.10329473 0.068932061 -0.1) to (34.397236 34.431599 0.1)
  orthogonal box = (0.10329473 0.10329473 -0.1) to (34.397236 34.397236 0.1)
velocity        all set 0.0 0.0 0.0       # 压缩后清零速度，避免把上一轮残余动量带进来
# @after
run             ${compress_loop}        # 每轮给足够松弛时间
run             10000        
Generated 0 of 1 mixed pair_coeff terms from geometric mixing rule
Per MPI rank memory allocation (min/avg/max) = 11.24 | 11.24 | 11.24 Mbytes
   Step        Atoms          Lx             Ly           v_phi          Press          KinEng        c_ke_rot   
     70000         512   34.293941      34.293941      0.50604223     0.39950387     0              0            
     75000         512   34.293941      34.293941      0.50604223     5.3257181e-06  2.0772362e-07  0            
     80000         512   34.293941      34.293941      0.50604223     6.9257853e-08  1.9328673e-10  0            
Loop time of 0.081972 on 8 procs for 10000 steps with 512 atoms

Performance: 527009.223 tau/day, 121992.876 timesteps/s, 62.460 Matom-step/s
92.9% CPU use with 8 MPI tasks x 1 OpenMP threads

MPI task timing breakdown:
Section |  min time  |  avg time  |  max time  |%varavg| %total
---------------------------------------------------------------
Pair    | 0.004239   | 0.005056   | 0.00568    |   0.6 |  6.17
Neigh   | 0          | 0          | 0          |   0.0 |  0.00
Comm    | 0.03369    | 0.035946   | 0.037431   |   0.7 | 43.85
Output  | 0.00046    | 0.0006095  | 0.000723   |   0.0 |  0.74
Modify  | 0.011695   | 0.01228    | 0.012715   |   0.4 | 14.98
Other   |            | 0.02808    |            |       | 34.26

Nlocal:             64 ave          67 max          59 min
Histogram: 1 0 1 0 0 1 0 3 0 2
Nghost:         47.875 ave          54 max          35 min
Histogram: 1 0 0 1 0 1 0 1 1 3
Neighs:            134 ave         158 max         116 min
Histogram: 2 2 0 0 1 0 1 0 0 2

Total # of neighbors = 1072
Ave neighs/atom = 2.09375
Neighbor list builds = 0
Dangerous builds = 0
print           "${i} ${st} ${phi} ${pr} ${KEtot}" append ${logfile}
print           "${i} ${st} ${phi} ${pr} ${KEtot}" append compress_rate/compress_rate_0.0001/log_compress_rate_0.0001.txt
3 80000 0.506042225012048 6.92578526137114e-08 9.89628043829554e-08
print           "${i} ${st} ${phi} ${pr} ${KEtot}" append ${pressfile}
print           "${i} ${st} ${phi} ${pr} ${KEtot}" append compress_rate/compress_rate_0.0001/press_phi_compress_rate_0.0001.txt
3 80000 0.506042225012048 6.92578526137114e-08 9.89628043829554e-08
next            i
jump            SELF loop_compress
variable        i loop ${ncycle}
variable        i loop 150
# @before(压缩之前的我不关注)
change_box      all x scale ${scale} y scale ${scale} remap units box
change_box      all x scale 0.998 y scale ${scale} remap units box
change_box      all x scale 0.998 y scale 0.998 remap units box
Changing box ...
  orthogonal box = (0.13758867 0.10329473 -0.1) to (34.362942 34.397236 0.1)
  orthogonal box = (0.13758867 0.13758867 -0.1) to (34.362942 34.362942 0.1)
velocity        all set 0.0 0.0 0.0       # 压缩后清零速度，避免把上一轮残余动量带进来
# @after
run             ${compress_loop}        # 每轮给足够松弛时间
run             10000        
Generated 0 of 1 mixed pair_coeff terms from geometric mixing rule
Per MPI rank memory allocation (min/avg/max) = 11.24 | 11.24 | 11.24 Mbytes
   Step        Atoms          Lx             Ly           v_phi          Press          KinEng        c_ke_rot   
     80000         512   34.225353      34.225353      0.50807248     0.50643764     0              0            
     85000         512   34.225353      34.225353      0.50807248     5.7781135e-05  2.719881e-07   0            
     90000         512   34.225353      34.225353      0.50807248     2.7714345e-08  2.5499098e-10  0            
Loop time of 0.0764904 on 8 procs for 10000 steps with 512 atoms

Performance: 564776.941 tau/day, 130735.403 timesteps/s, 66.937 Matom-step/s
102.1% CPU use with 8 MPI tasks x 1 OpenMP threads

MPI task timing breakdown:
Section |  min time  |  avg time  |  max time  |%varavg| %total
---------------------------------------------------------------
Pair    | 0.00432    | 0.0048994  | 0.005539   |   0.6 |  6.41
Neigh   | 0          | 0          | 0          |   0.0 |  0.00
Comm    | 0.032653   | 0.03451    | 0.036704   |   0.8 | 45.12
Output  | 0.000394   | 0.00053788 | 0.00064    |   0.0 |  0.70
Modify  | 0.011657   | 0.012169   | 0.012961   |   0.4 | 15.91
Other   |            | 0.02437    |            |       | 31.87

Nlocal:             64 ave          67 max          59 min
Histogram: 1 0 1 0 0 1 0 3 0 2
Nghost:             48 ave          54 max          35 min
Histogram: 1 0 0 1 0 1 0 1 1 3
Neighs:          134.5 ave         158 max         117 min
Histogram: 2 2 0 0 1 0 1 0 0 2

Total # of neighbors = 1076
Ave neighs/atom = 2.1015625
Neighbor list builds = 0
Dangerous builds = 0
print           "${i} ${st} ${phi} ${pr} ${KEtot}" append ${logfile}
print           "${i} ${st} ${phi} ${pr} ${KEtot}" append compress_rate/compress_rate_0.0001/log_compress_rate_0.0001.txt
4 90000 0.508072482652728 2.77143449020585e-08 1.30555382914845e-07
print           "${i} ${st} ${phi} ${pr} ${KEtot}" append ${pressfile}
print           "${i} ${st} ${phi} ${pr} ${KEtot}" append compress_rate/compress_rate_0.0001/press_phi_compress_rate_0.0001.txt
4 90000 0.508072482652728 2.77143449020585e-08 1.30555382914845e-07
next            i
jump            SELF loop_compress
variable        i loop ${ncycle}
variable        i loop 150
# @before(压缩之前的我不关注)
change_box      all x scale ${scale} y scale ${scale} remap units box
change_box      all x scale 0.998 y scale ${scale} remap units box
change_box      all x scale 0.998 y scale 0.998 remap units box
Changing box ...
  orthogonal box = (0.17181402 0.13758867 -0.1) to (34.328717 34.362942 0.1)
  orthogonal box = (0.17181402 0.17181402 -0.1) to (34.328717 34.328717 0.1)
velocity        all set 0.0 0.0 0.0       # 压缩后清零速度，避免把上一轮残余动量带进来
# @after
run             ${compress_loop}        # 每轮给足够松弛时间
run             10000        
Generated 0 of 1 mixed pair_coeff terms from geometric mixing rule
Per MPI rank memory allocation (min/avg/max) = 11.24 | 11.24 | 11.24 Mbytes
   Step        Atoms          Lx             Ly           v_phi          Press          KinEng        c_ke_rot   
     90000         512   34.156903      34.156903      0.51011089     0.81829687     0              0            
     95000         512   34.156903      34.156903      0.51011089     7.843043e-06   4.9880336e-07  0            
    100000         512   34.156903      34.156903      0.51011089     8.6873784e-08  4.6711215e-10  0            
Loop time of 0.0809671 on 8 procs for 10000 steps with 512 atoms

Performance: 533549.882 tau/day, 123506.917 timesteps/s, 63.236 Matom-step/s
94.1% CPU use with 8 MPI tasks x 1 OpenMP threads

MPI task timing breakdown:
Section |  min time  |  avg time  |  max time  |%varavg| %total
---------------------------------------------------------------
Pair    | 0.00435    | 0.0050615  | 0.005891   |   0.7 |  6.25
Neigh   | 0          | 0          | 0          |   0.0 |  0.00
Comm    | 0.032936   | 0.03583    | 0.038594   |   1.0 | 44.25
Output  | 0.000426   | 0.00059337 | 0.000736   |   0.0 |  0.73
Modify  | 0.011344   | 0.012153   | 0.012771   |   0.4 | 15.01
Other   |            | 0.02733    |            |       | 33.75

Nlocal:             64 ave          67 max          59 min
Histogram: 1 0 1 0 0 1 0 3 0 2
Nghost:             48 ave          54 max          35 min
Histogram: 1 0 0 1 0 1 0 1 1 3
Neighs:         135.25 ave         160 max         116 min
Histogram: 2 0 2 0 1 0 1 0 0 2

Total # of neighbors = 1082
Ave neighs/atom = 2.1132812
Neighbor list builds = 0
Dangerous builds = 0
print           "${i} ${st} ${phi} ${pr} ${KEtot}" append ${logfile}
print           "${i} ${st} ${phi} ${pr} ${KEtot}" append compress_rate/compress_rate_0.0001/log_compress_rate_0.0001.txt
5 100000 0.510110885752194 8.68737839923791e-08 2.39161420536317e-07
print           "${i} ${st} ${phi} ${pr} ${KEtot}" append ${pressfile}
print           "${i} ${st} ${phi} ${pr} ${KEtot}" append compress_rate/compress_rate_0.0001/press_phi_compress_rate_0.0001.txt
5 100000 0.510110885752194 8.68737839923791e-08 2.39161420536317e-07
next            i
jump            SELF loop_compress
variable        i loop ${ncycle}
variable        i loop 150
# @before(压缩之前的我不关注)
change_box      all x scale ${scale} y scale ${scale} remap units box
change_box      all x scale 0.998 y scale ${scale} remap units box
change_box      all x scale 0.998 y scale 0.998 remap units box
Changing box ...
  orthogonal box = (0.20597092 0.17181402 -0.1) to (34.29456 34.328717 0.1)
  orthogonal box = (0.20597092 0.20597092 -0.1) to (34.29456 34.29456 0.1)
velocity        all set 0.0 0.0 0.0       # 压缩后清零速度，避免把上一轮残余动量带进来
# @after
run             ${compress_loop}        # 每轮给足够松弛时间
run             10000        
Generated 0 of 1 mixed pair_coeff terms from geometric mixing rule
Per MPI rank memory allocation (min/avg/max) = 11.24 | 11.24 | 11.24 Mbytes
   Step        Atoms          Lx             Ly           v_phi          Press          KinEng        c_ke_rot   
    100000         512   34.088589      34.088589      0.51215747     0.82446244     0              0            
    105000         512   34.088589      34.088589      0.51215747     1.0201152e-05  3.8246888e-07  0            
    110000         512   34.088589      34.088589      0.51215747     7.5098726e-08  3.5911044e-10  0            
Loop time of 0.0751489 on 8 procs for 10000 steps with 512 atoms

Performance: 574858.905 tau/day, 133069.191 timesteps/s, 68.131 Matom-step/s
101.4% CPU use with 8 MPI tasks x 1 OpenMP threads

MPI task timing breakdown:
Section |  min time  |  avg time  |  max time  |%varavg| %total
---------------------------------------------------------------
Pair    | 0.004517   | 0.0049773  | 0.005424   |   0.4 |  6.62
Neigh   | 0          | 0          | 0          |   0.0 |  0.00
Comm    | 0.030455   | 0.033772   | 0.036865   |   1.1 | 44.94
Output  | 0.000425   | 0.00059    | 0.000703   |   0.0 |  0.79
Modify  | 0.011353   | 0.012205   | 0.012821   |   0.4 | 16.24
Other   |            | 0.0236     |            |       | 31.41

Nlocal:             64 ave          67 max          59 min
Histogram: 1 0 1 0 0 1 0 3 0 2
Nghost:         48.125 ave          54 max          35 min
Histogram: 1 0 0 1 0 1 0 1 1 3
Neighs:         135.75 ave         161 max         117 min
Histogram: 2 2 0 0 1 0 1 0 0 2

Total # of neighbors = 1086
Ave neighs/atom = 2.1210938
Neighbor list builds = 0
Dangerous builds = 0
print           "${i} ${st} ${phi} ${pr} ${KEtot}" append ${logfile}
print           "${i} ${st} ${phi} ${pr} ${KEtot}" append compress_rate/compress_rate_0.0001/log_compress_rate_0.0001.txt
6 110000 0.512157466990287 7.50987256685161e-08 1.8386454778766e-07
print           "${i} ${st} ${phi} ${pr} ${KEtot}" append ${pressfile}
print           "${i} ${st} ${phi} ${pr} ${KEtot}" append compress_rate/compress_rate_0.0001/press_phi_compress_rate_0.0001.txt
6 110000 0.512157466990287 7.50987256685161e-08 1.8386454778766e-07
next            i
jump            SELF loop_compress
variable        i loop ${ncycle}
variable        i loop 150
# @before(压缩之前的我不关注)
change_box      all x scale ${scale} y scale ${scale} remap units box
change_box      all x scale 0.998 y scale ${scale} remap units box
change_box      all x scale 0.998 y scale 0.998 remap units box
Changing box ...
  orthogonal box = (0.24005951 0.20597092 -0.1) to (34.260471 34.29456 0.1)
  orthogonal box = (0.24005951 0.24005951 -0.1) to (34.260471 34.260471 0.1)
velocity        all set 0.0 0.0 0.0       # 压缩后清零速度，避免把上一轮残余动量带进来
# @after
run             ${compress_loop}        # 每轮给足够松弛时间
run             10000        
Generated 0 of 1 mixed pair_coeff terms from geometric mixing rule
Per MPI rank memory allocation (min/avg/max) = 11.24 | 11.24 | 11.24 Mbytes
   Step        Atoms          Lx             Ly           v_phi          Press          KinEng        c_ke_rot   
    110000         512   34.020412      34.020412      0.51421226     1.6903009      0              0            
    115000         512   34.020412      34.020412      0.51421226    -7.4274081e-06  9.1279466e-07  0            
    120000         512   34.020412      34.020412      0.51421226     4.3828429e-08  8.6258634e-10  0            
Loop time of 0.0871234 on 8 procs for 10000 steps with 512 atoms

Performance: 495848.560 tau/day, 114779.759 timesteps/s, 58.767 Matom-step/s
89.7% CPU use with 8 MPI tasks x 1 OpenMP threads

MPI task timing breakdown:
Section |  min time  |  avg time  |  max time  |%varavg| %total
---------------------------------------------------------------
Pair    | 0.004706   | 0.0052814  | 0.006791   |   0.9 |  6.06
Neigh   | 0          | 0          | 0          |   0.0 |  0.00
Comm    | 0.035961   | 0.038376   | 0.042133   |   1.2 | 44.05
Output  | 0.000561   | 0.00075087 | 0.000888   |   0.0 |  0.86
Modify  | 0.012161   | 0.012508   | 0.012929   |   0.2 | 14.36
Other   |            | 0.03021    |            |       | 34.67

Nlocal:             64 ave          67 max          59 min
Histogram: 1 0 1 0 0 1 0 3 0 2
Nghost:         48.125 ave          54 max          35 min
Histogram: 1 0 0 1 0 1 0 1 1 3
Neighs:        136.375 ave         161 max         117 min
Histogram: 2 1 1 0 1 0 1 0 0 2

Total # of neighbors = 1091
Ave neighs/atom = 2.1308594
Neighbor list builds = 0
Dangerous builds = 0
print           "${i} ${st} ${phi} ${pr} ${KEtot}" append ${logfile}
print           "${i} ${st} ${phi} ${pr} ${KEtot}" append compress_rate/compress_rate_0.0001/log_compress_rate_0.0001.txt
7 120000 0.514212259177963 4.3828429133081e-08 4.41644204575648e-07
print           "${i} ${st} ${phi} ${pr} ${KEtot}" append ${pressfile}
print           "${i} ${st} ${phi} ${pr} ${KEtot}" append compress_rate/compress_rate_0.0001/press_phi_compress_rate_0.0001.txt
7 120000 0.514212259177963 4.3828429133081e-08 4.41644204575648e-07
next            i
jump            SELF loop_compress
variable        i loop ${ncycle}
variable        i loop 150
# @before(压缩之前的我不关注)
change_box      all x scale ${scale} y scale ${scale} remap units box
change_box      all x scale 0.998 y scale ${scale} remap units box
change_box      all x scale 0.998 y scale 0.998 remap units box
Changing box ...
  orthogonal box = (0.27407993 0.24005951 -0.1) to (34.226451 34.260471 0.1)
  orthogonal box = (0.27407993 0.27407993 -0.1) to (34.226451 34.226451 0.1)
velocity        all set 0.0 0.0 0.0       # 压缩后清零速度，避免把上一轮残余动量带进来
# @after
run             ${compress_loop}        # 每轮给足够松弛时间
run             10000        
Generated 0 of 1 mixed pair_coeff terms from geometric mixing rule
Per MPI rank memory allocation (min/avg/max) = 11.24 | 11.24 | 11.24 Mbytes
   Step        Atoms          Lx             Ly           v_phi          Press          KinEng        c_ke_rot   
    120000         512   33.952371      33.952371      0.5162753      1.0378728      0              0            
    125000         512   33.952371      33.952371      0.5162753      2.9621961e-05  7.5828084e-07  0            
    130000         512   33.952371      33.952371      0.5162753      1.6912639e-07  7.0615364e-10  0            
Loop time of 0.0798124 on 8 procs for 10000 steps with 512 atoms

Performance: 541269.446 tau/day, 125293.853 timesteps/s, 64.150 Matom-step/s
107.7% CPU use with 8 MPI tasks x 1 OpenMP threads

MPI task timing breakdown:
Section |  min time  |  avg time  |  max time  |%varavg| %total
---------------------------------------------------------------
Pair    | 0.004728   | 0.0051856  | 0.005873   |   0.5 |  6.50
Neigh   | 0          | 0          | 0          |   0.0 |  0.00
Comm    | 0.03312    | 0.035421   | 0.038534   |   1.0 | 44.38
Output  | 0.00039    | 0.00053787 | 0.000743   |   0.0 |  0.67
Modify  | 0.011814   | 0.012165   | 0.012431   |   0.2 | 15.24
Other   |            | 0.0265     |            |       | 33.21

Nlocal:             64 ave          67 max          59 min
Histogram: 1 0 1 0 0 1 0 3 0 2
Nghost:         48.125 ave          54 max          35 min
Histogram: 1 0 0 1 0 1 0 1 1 3
Neighs:        136.875 ave         161 max         117 min
Histogram: 2 0 2 0 1 0 1 0 0 2

Total # of neighbors = 1095
Ave neighs/atom = 2.1386719
Neighbor list builds = 0
Dangerous builds = 0
print           "${i} ${st} ${phi} ${pr} ${KEtot}" append ${logfile}
print           "${i} ${st} ${phi} ${pr} ${KEtot}" append compress_rate/compress_rate_0.0001/log_compress_rate_0.0001.txt
8 130000 0.516275295257813 1.69126389596038e-07 3.61550663613913e-07
print           "${i} ${st} ${phi} ${pr} ${KEtot}" append ${pressfile}
print           "${i} ${st} ${phi} ${pr} ${KEtot}" append compress_rate/compress_rate_0.0001/press_phi_compress_rate_0.0001.txt
8 130000 0.516275295257813 1.69126389596038e-07 3.61550663613913e-07
next            i
jump            SELF loop_compress
variable        i loop ${ncycle}
variable        i loop 150
# @before(压缩之前的我不关注)
change_box      all x scale ${scale} y scale ${scale} remap units box
change_box      all x scale 0.998 y scale ${scale} remap units box
change_box      all x scale 0.998 y scale 0.998 remap units box
Changing box ...
  orthogonal box = (0.3080323 0.27407993 -0.1) to (34.192498 34.226451 0.1)
  orthogonal box = (0.3080323 0.3080323 -0.1) to (34.192498 34.192498 0.1)
velocity        all set 0.0 0.0 0.0       # 压缩后清零速度，避免把上一轮残余动量带进来
# @after
run             ${compress_loop}        # 每轮给足够松弛时间
run             10000        
Generated 0 of 1 mixed pair_coeff terms from geometric mixing rule
Per MPI rank memory allocation (min/avg/max) = 11.24 | 11.24 | 11.24 Mbytes
   Step        Atoms          Lx             Ly           v_phi          Press          KinEng        c_ke_rot   
    130000         512   33.884466      33.884466      0.51834661     1.0732429      0              0            
    135000         512   33.884466      33.884466      0.51834661     1.0714844e-05  6.0716289e-07  0            
    140000         512   33.884466      33.884466      0.51834661     1.3633503e-07  5.663026e-10   0            
Loop time of 0.083467 on 8 procs for 10000 steps with 512 atoms

Performance: 517569.818 tau/day, 119807.828 timesteps/s, 61.342 Matom-step/s
93.6% CPU use with 8 MPI tasks x 1 OpenMP threads

MPI task timing breakdown:
Section |  min time  |  avg time  |  max time  |%varavg| %total
---------------------------------------------------------------
Pair    | 0.004677   | 0.0052615  | 0.005917   |   0.6 |  6.30
Neigh   | 0          | 0          | 0          |   0.0 |  0.00
Comm    | 0.035124   | 0.037073   | 0.038919   |   0.7 | 44.42
Output  | 0.000444   | 0.00060237 | 0.000716   |   0.0 |  0.72
Modify  | 0.011338   | 0.012286   | 0.012933   |   0.4 | 14.72
Other   |            | 0.02824    |            |       | 33.84

Nlocal:             64 ave          67 max          59 min
Histogram: 1 0 1 0 0 1 0 3 0 2
Nghost:         48.125 ave          54 max          35 min
Histogram: 1 0 0 1 0 1 0 1 1 3
Neighs:        137.625 ave         161 max         118 min
Histogram: 2 0 2 0 1 0 1 0 0 2

Total # of neighbors = 1101
Ave neighs/atom = 2.1503906
Neighbor list builds = 0
Dangerous builds = 0
print           "${i} ${st} ${phi} ${pr} ${KEtot}" append ${logfile}
print           "${i} ${st} ${phi} ${pr} ${KEtot}" append compress_rate/compress_rate_0.0001/log_compress_rate_0.0001.txt
9 140000 0.518346608304598 1.36335025408704e-07 2.89946929890909e-07
print           "${i} ${st} ${phi} ${pr} ${KEtot}" append ${pressfile}
print           "${i} ${st} ${phi} ${pr} ${KEtot}" append compress_rate/compress_rate_0.0001/press_phi_compress_rate_0.0001.txt
9 140000 0.518346608304598 1.36335025408704e-07 2.89946929890909e-07
next            i
jump            SELF loop_compress
variable        i loop ${ncycle}
variable        i loop 150
# @before(压缩之前的我不关注)
change_box      all x scale ${scale} y scale ${scale} remap units box
change_box      all x scale 0.998 y scale ${scale} remap units box
change_box      all x scale 0.998 y scale 0.998 remap units box
Changing box ...
  orthogonal box = (0.34191676 0.3080323 -0.1) to (34.158614 34.192498 0.1)
  orthogonal box = (0.34191676 0.34191676 -0.1) to (34.158614 34.158614 0.1)
velocity        all set 0.0 0.0 0.0       # 压缩后清零速度，避免把上一轮残余动量带进来
# @after
run             ${compress_loop}        # 每轮给足够松弛时间
run             10000        
Generated 0 of 1 mixed pair_coeff terms from geometric mixing rule
Per MPI rank memory allocation (min/avg/max) = 11.24 | 11.24 | 11.24 Mbytes
   Step        Atoms          Lx             Ly           v_phi          Press          KinEng        c_ke_rot   
    140000         512   33.816697      33.816697      0.52042623     1.3113879      0              0            
    145000         512   33.816697      33.816697      0.52042623     2.2597888e-05  7.2362814e-07  0            
    150000         512   33.816697      33.816697      0.52042623     1.8539332e-07  6.7592832e-10  0            
Loop time of 0.0749722 on 8 procs for 10000 steps with 512 atoms

Performance: 576213.199 tau/day, 133382.685 timesteps/s, 68.292 Matom-step/s
101.6% CPU use with 8 MPI tasks x 1 OpenMP threads

MPI task timing breakdown:
Section |  min time  |  avg time  |  max time  |%varavg| %total
---------------------------------------------------------------
Pair    | 0.004559   | 0.005164   | 0.006014   |   0.7 |  6.89
Neigh   | 0          | 0          | 0          |   0.0 |  0.00
Comm    | 0.03232    | 0.033887   | 0.036422   |   0.8 | 45.20
Output  | 0.000471   | 0.00067688 | 0.000835   |   0.0 |  0.90
Modify  | 0.011249   | 0.01184    | 0.012325   |   0.3 | 15.79
Other   |            | 0.0234     |            |       | 31.22

Nlocal:             64 ave          67 max          59 min
Histogram: 1 0 1 0 0 1 0 3 0 2
Nghost:          48.25 ave          54 max          35 min
Histogram: 1 0 0 1 0 1 0 1 1 3
Neighs:            138 ave         162 max         118 min
Histogram: 2 0 2 0 1 0 0 1 0 2

Total # of neighbors = 1104
Ave neighs/atom = 2.15625
Neighbor list builds = 0
Dangerous builds = 0
print           "${i} ${st} ${phi} ${pr} ${KEtot}" append ${logfile}
print           "${i} ${st} ${phi} ${pr} ${KEtot}" append compress_rate/compress_rate_0.0001/log_compress_rate_0.0001.txt
10 150000 0.520426231525775 1.85393316015717e-07 3.46075299229198e-07
print           "${i} ${st} ${phi} ${pr} ${KEtot}" append ${pressfile}
print           "${i} ${st} ${phi} ${pr} ${KEtot}" append compress_rate/compress_rate_0.0001/press_phi_compress_rate_0.0001.txt
10 150000 0.520426231525775 1.85393316015717e-07 3.46075299229198e-07
next            i
jump            SELF loop_compress
variable        i loop ${ncycle}
variable        i loop 150
# @before(压缩之前的我不关注)
change_box      all x scale ${scale} y scale ${scale} remap units box
change_box      all x scale 0.998 y scale ${scale} remap units box
change_box      all x scale 0.998 y scale 0.998 remap units box
Changing box ...
  orthogonal box = (0.37573346 0.34191676 -0.1) to (34.124797 34.158614 0.1)
  orthogonal box = (0.37573346 0.37573346 -0.1) to (34.124797 34.124797 0.1)
velocity        all set 0.0 0.0 0.0       # 压缩后清零速度，避免把上一轮残余动量带进来
# @after
run             ${compress_loop}        # 每轮给足够松弛时间
run             10000        
Generated 0 of 1 mixed pair_coeff terms from geometric mixing rule
Per MPI rank memory allocation (min/avg/max) = 11.24 | 11.24 | 11.24 Mbytes
   Step        Atoms          Lx             Ly           v_phi          Press          KinEng        c_ke_rot   
    150000         512   33.749064      33.749064      0.5225142      1.2364956      0              0            
    155000         512   33.749064      33.749064      0.5225142      0.00010870439  8.7994654e-07  0            
    160000         512   33.749064      33.749064      0.5225142      2.5648221e-07  8.0426095e-10  0            
Loop time of 0.0813545 on 8 procs for 10000 steps with 512 atoms

Performance: 531009.348 tau/day, 122918.831 timesteps/s, 62.934 Matom-step/s
93.6% CPU use with 8 MPI tasks x 1 OpenMP threads

MPI task timing breakdown:
Section |  min time  |  avg time  |  max time  |%varavg| %total
---------------------------------------------------------------
Pair    | 0.004532   | 0.0053331  | 0.006512   |   0.9 |  6.56
Neigh   | 0          | 0          | 0          |   0.0 |  0.00
Comm    | 0.033597   | 0.035678   | 0.038476   |   0.9 | 43.86
Output  | 0.00064    | 0.00081512 | 0.001008   |   0.0 |  1.00
Modify  | 0.011726   | 0.012198   | 0.012517   |   0.3 | 14.99
Other   |            | 0.02733    |            |       | 33.59

Nlocal:             64 ave          67 max          59 min
Histogram: 1 0 1 0 0 1 0 3 0 2
Nghost:          48.25 ave          54 max          35 min
Histogram: 1 0 0 1 0 1 0 1 1 3
Neighs:        139.375 ave         162 max         121 min
Histogram: 2 1 1 0 1 0 0 1 0 2

Total # of neighbors = 1115
Ave neighs/atom = 2.1777344
Neighbor list builds = 0
Dangerous builds = 0
print           "${i} ${st} ${phi} ${pr} ${KEtot}" append ${logfile}
print           "${i} ${st} ${phi} ${pr} ${KEtot}" append compress_rate/compress_rate_0.0001/log_compress_rate_0.0001.txt
11 160000 0.52251419826203 2.56482213727253e-07 4.11781605897245e-07
print           "${i} ${st} ${phi} ${pr} ${KEtot}" append ${pressfile}
print           "${i} ${st} ${phi} ${pr} ${KEtot}" append compress_rate/compress_rate_0.0001/press_phi_compress_rate_0.0001.txt
11 160000 0.52251419826203 2.56482213727253e-07 4.11781605897245e-07
next            i
jump            SELF loop_compress
variable        i loop ${ncycle}
variable        i loop 150
# @before(压缩之前的我不关注)
change_box      all x scale ${scale} y scale ${scale} remap units box
change_box      all x scale 0.998 y scale ${scale} remap units box
change_box      all x scale 0.998 y scale 0.998 remap units box
Changing box ...
  orthogonal box = (0.40948252 0.37573346 -0.1) to (34.091048 34.124797 0.1)
  orthogonal box = (0.40948252 0.40948252 -0.1) to (34.091048 34.091048 0.1)
velocity        all set 0.0 0.0 0.0       # 压缩后清零速度，避免把上一轮残余动量带进来
# @after
run             ${compress_loop}        # 每轮给足够松弛时间
run             10000        
Generated 0 of 1 mixed pair_coeff terms from geometric mixing rule
Per MPI rank memory allocation (min/avg/max) = 11.24 | 11.24 | 11.24 Mbytes
   Step        Atoms          Lx             Ly           v_phi          Press          KinEng        c_ke_rot   
    160000         512   33.681566      33.681566      0.52461054     1.8388138      0              0            
    165000         512   33.681566      33.681566      0.52461054     2.1504817e-05  9.7045885e-07  0            
    170000         512   33.681566      33.681566      0.52461054     2.3099261e-07  9.001802e-10   0            
Loop time of 0.077219 on 8 procs for 10000 steps with 512 atoms

Performance: 559447.804 tau/day, 129501.807 timesteps/s, 66.305 Matom-step/s
80.9% CPU use with 8 MPI tasks x 1 OpenMP threads

MPI task timing breakdown:
Section |  min time  |  avg time  |  max time  |%varavg| %total
---------------------------------------------------------------
Pair    | 0.004635   | 0.0052981  | 0.006544   |   0.8 |  6.86
Neigh   | 0          | 0          | 0          |   0.0 |  0.00
Comm    | 0.03205    | 0.034208   | 0.035935   |   0.7 | 44.30
Output  | 0.000972   | 0.001267   | 0.001531   |   0.4 |  1.64
Modify  | 0.0114     | 0.01203    | 0.012502   |   0.3 | 15.58
Other   |            | 0.02442    |            |       | 31.62

Nlocal:             64 ave          67 max          59 min
Histogram: 1 0 1 0 0 1 0 3 0 2
Nghost:           48.5 ave          55 max          35 min
Histogram: 1 0 0 1 0 1 0 1 1 3
Neighs:            140 ave         162 max         121 min
Histogram: 2 0 1 1 1 0 0 1 0 2

Total # of neighbors = 1120
Ave neighs/atom = 2.1875
Neighbor list builds = 0
Dangerous builds = 0
print           "${i} ${st} ${phi} ${pr} ${KEtot}" append ${logfile}
print           "${i} ${st} ${phi} ${pr} ${KEtot}" append compress_rate/compress_rate_0.0001/log_compress_rate_0.0001.txt
12 170000 0.524610541987813 2.30992606175422e-07 4.6089226029497e-07
print           "${i} ${st} ${phi} ${pr} ${KEtot}" append ${pressfile}
print           "${i} ${st} ${phi} ${pr} ${KEtot}" append compress_rate/compress_rate_0.0001/press_phi_compress_rate_0.0001.txt
12 170000 0.524610541987813 2.30992606175422e-07 4.6089226029497e-07
next            i
jump            SELF loop_compress
variable        i loop ${ncycle}
variable        i loop 150
# @before(压缩之前的我不关注)
change_box      all x scale ${scale} y scale ${scale} remap units box
change_box      all x scale 0.998 y scale ${scale} remap units box
change_box      all x scale 0.998 y scale 0.998 remap units box
Changing box ...
  orthogonal box = (0.44316409 0.40948252 -0.1) to (34.057367 34.091048 0.1)
  orthogonal box = (0.44316409 0.44316409 -0.1) to (34.057367 34.057367 0.1)
velocity        all set 0.0 0.0 0.0       # 压缩后清零速度，避免把上一轮残余动量带进来
# @after
run             ${compress_loop}        # 每轮给足够松弛时间
run             10000        
Generated 0 of 1 mixed pair_coeff terms from geometric mixing rule
Per MPI rank memory allocation (min/avg/max) = 11.24 | 11.24 | 11.24 Mbytes
   Step        Atoms          Lx             Ly           v_phi          Press          KinEng        c_ke_rot   
    170000         512   33.614203      33.614203      0.5267153      1.4284724      0              0            
    175000         512   33.614203      33.614203      0.5267153      9.4811142e-05  9.2964162e-07  0            
    180000         512   33.614203      33.614203      0.5267153      3.8473684e-07  8.5184669e-10  0            
Loop time of 0.082071 on 8 procs for 10000 steps with 512 atoms

Performance: 526373.506 tau/day, 121845.719 timesteps/s, 62.385 Matom-step/s
92.8% CPU use with 8 MPI tasks x 1 OpenMP threads

MPI task timing breakdown:
Section |  min time  |  avg time  |  max time  |%varavg| %total
---------------------------------------------------------------
Pair    | 0.004779   | 0.0053956  | 0.006005   |   0.5 |  6.57
Neigh   | 0          | 0          | 0          |   0.0 |  0.00
Comm    | 0.034038   | 0.036065   | 0.037737   |   0.7 | 43.94
Output  | 0.000532   | 0.00065825 | 0.000758   |   0.0 |  0.80
Modify  | 0.011246   | 0.012214   | 0.012921   |   0.4 | 14.88
Other   |            | 0.02774    |            |       | 33.80

Nlocal:             64 ave          67 max          59 min
Histogram: 1 0 1 0 0 1 0 3 0 2
Nghost:           48.5 ave          55 max          35 min
Histogram: 1 0 0 1 0 1 0 1 1 3
Neighs:          140.5 ave         162 max         121 min
Histogram: 2 0 1 1 1 0 0 1 0 2

Total # of neighbors = 1124
Ave neighs/atom = 2.1953125
Neighbor list builds = 0
Dangerous builds = 0
print           "${i} ${st} ${phi} ${pr} ${KEtot}" append ${logfile}
print           "${i} ${st} ${phi} ${pr} ${KEtot}" append compress_rate/compress_rate_0.0001/log_compress_rate_0.0001.txt
13 180000 0.526715296311875 3.84736839595089e-07 4.36145505709567e-07
print           "${i} ${st} ${phi} ${pr} ${KEtot}" append ${pressfile}
print           "${i} ${st} ${phi} ${pr} ${KEtot}" append compress_rate/compress_rate_0.0001/press_phi_compress_rate_0.0001.txt
13 180000 0.526715296311875 3.84736839595089e-07 4.36145505709567e-07
next            i
jump            SELF loop_compress
variable        i loop ${ncycle}
variable        i loop 150
# @before(压缩之前的我不关注)
change_box      all x scale ${scale} y scale ${scale} remap units box
change_box      all x scale 0.998 y scale ${scale} remap units box
change_box      all x scale 0.998 y scale 0.998 remap units box
Changing box ...
  orthogonal box = (0.47677829 0.44316409 -0.1) to (34.023752 34.057367 0.1)
  orthogonal box = (0.47677829 0.47677829 -0.1) to (34.023752 34.023752 0.1)
velocity        all set 0.0 0.0 0.0       # 压缩后清零速度，避免把上一轮残余动量带进来
# @after
run             ${compress_loop}        # 每轮给足够松弛时间
run             10000        
Generated 0 of 1 mixed pair_coeff terms from geometric mixing rule
Per MPI rank memory allocation (min/avg/max) = 11.24 | 11.24 | 11.24 Mbytes
   Step        Atoms          Lx             Ly           v_phi          Press          KinEng        c_ke_rot   
    180000         512   33.546974      33.546974      0.52882849     1.7100298      0              0            
    185000         512   33.546974      33.546974      0.52882849     9.968825e-06   1.0815974e-06  0            
    190000         512   33.546974      33.546974      0.52882849     1.5000184e-07  1.0146633e-09  0            
Loop time of 0.0914485 on 8 procs for 10000 steps with 512 atoms

Performance: 472397.032 tau/day, 109351.165 timesteps/s, 55.988 Matom-step/s
102.5% CPU use with 8 MPI tasks x 1 OpenMP threads

MPI task timing breakdown:
Section |  min time  |  avg time  |  max time  |%varavg| %total
---------------------------------------------------------------
Pair    | 0.004881   | 0.0056619  | 0.006282   |   0.7 |  6.19
Neigh   | 0          | 0          | 0          |   0.0 |  0.00
Comm    | 0.03638    | 0.038821   | 0.041034   |   0.8 | 42.45
Output  | 0.000875   | 0.0011025  | 0.001304   |   0.4 |  1.21
Modify  | 0.01161    | 0.012442   | 0.013077   |   0.5 | 13.61
Other   |            | 0.03342    |            |       | 36.55

Nlocal:             64 ave          68 max          59 min
Histogram: 1 0 1 0 1 1 2 0 1 1
Nghost:           48.5 ave          55 max          35 min
Histogram: 1 0 0 1 0 1 0 1 1 3
Neighs:        141.375 ave         165 max         122 min
Histogram: 2 1 0 1 1 0 0 1 0 2

Total # of neighbors = 1131
Ave neighs/atom = 2.2089844
Neighbor list builds = 0
Dangerous builds = 0
print           "${i} ${st} ${phi} ${pr} ${KEtot}" append ${logfile}
print           "${i} ${st} ${phi} ${pr} ${KEtot}" append compress_rate/compress_rate_0.0001/log_compress_rate_0.0001.txt
14 190000 0.528828494977807 1.50001838631024e-07 5.19507589082042e-07
print           "${i} ${st} ${phi} ${pr} ${KEtot}" append ${pressfile}
print           "${i} ${st} ${phi} ${pr} ${KEtot}" append compress_rate/compress_rate_0.0001/press_phi_compress_rate_0.0001.txt
14 190000 0.528828494977807 1.50001838631024e-07 5.19507589082042e-07
next            i
jump            SELF loop_compress
variable        i loop ${ncycle}
variable        i loop 150
# @before(压缩之前的我不关注)
change_box      all x scale ${scale} y scale ${scale} remap units box
change_box      all x scale 0.998 y scale ${scale} remap units box
change_box      all x scale 0.998 y scale 0.998 remap units box
Changing box ...
  orthogonal box = (0.51032527 0.47677829 -0.1) to (33.990206 34.023752 0.1)
  orthogonal box = (0.51032527 0.51032527 -0.1) to (33.990206 33.990206 0.1)
velocity        all set 0.0 0.0 0.0       # 压缩后清零速度，避免把上一轮残余动量带进来
# @after
run             ${compress_loop}        # 每轮给足够松弛时间
run             10000        
Generated 0 of 1 mixed pair_coeff terms from geometric mixing rule
Per MPI rank memory allocation (min/avg/max) = 11.24 | 11.24 | 11.24 Mbytes
   Step        Atoms          Lx             Ly           v_phi          Press          KinEng        c_ke_rot   
    190000         512   33.47988       33.47988       0.53095017     1.5126868      0              0            
    195000         512   33.47988       33.47988       0.53095017     5.9389639e-05  1.099308e-06   0            
    200000         512   33.47988       33.47988       0.53095017     3.0558478e-06  1.0305921e-09  0            
Loop time of 0.0795737 on 8 procs for 10000 steps with 512 atoms

Performance: 542892.600 tau/day, 125669.583 timesteps/s, 64.343 Matom-step/s
98.2% CPU use with 8 MPI tasks x 1 OpenMP threads

MPI task timing breakdown:
Section |  min time  |  avg time  |  max time  |%varavg| %total
---------------------------------------------------------------
Pair    | 0.004796   | 0.0055163  | 0.006417   |   0.8 |  6.93
Neigh   | 0          | 0          | 0          |   0.0 |  0.00
Comm    | 0.034227   | 0.035563   | 0.036741   |   0.4 | 44.69
Output  | 0.000437   | 0.00066912 | 0.000812   |   0.0 |  0.84
Modify  | 0.011694   | 0.012116   | 0.012613   |   0.3 | 15.23
Other   |            | 0.02571    |            |       | 32.31

Nlocal:             64 ave          68 max          59 min
Histogram: 1 0 1 0 1 1 2 0 1 1
Nghost:           48.5 ave          55 max          35 min
Histogram: 1 0 0 1 0 1 0 1 1 3
Neighs:            142 ave         166 max         122 min
Histogram: 2 1 0 1 1 0 0 1 0 2

Total # of neighbors = 1136
Ave neighs/atom = 2.21875
Neighbor list builds = 0
Dangerous builds = 0
print           "${i} ${st} ${phi} ${pr} ${KEtot}" append ${logfile}
print           "${i} ${st} ${phi} ${pr} ${KEtot}" append compress_rate/compress_rate_0.0001/log_compress_rate_0.0001.txt
15 200000 0.530950171864577 3.05584779783655e-06 5.27663133204837e-07
print           "${i} ${st} ${phi} ${pr} ${KEtot}" append ${pressfile}
print           "${i} ${st} ${phi} ${pr} ${KEtot}" append compress_rate/compress_rate_0.0001/press_phi_compress_rate_0.0001.txt
15 200000 0.530950171864577 3.05584779783655e-06 5.27663133204837e-07
next            i
jump            SELF loop_compress
variable        i loop ${ncycle}
variable        i loop 150
# @before(压缩之前的我不关注)
change_box      all x scale ${scale} y scale ${scale} remap units box
change_box      all x scale 0.998 y scale ${scale} remap units box
change_box      all x scale 0.998 y scale 0.998 remap units box
Changing box ...
  orthogonal box = (0.54380515 0.51032527 -0.1) to (33.956726 33.990206 0.1)
  orthogonal box = (0.54380515 0.54380515 -0.1) to (33.956726 33.956726 0.1)
velocity        all set 0.0 0.0 0.0       # 压缩后清零速度，避免把上一轮残余动量带进来
# @after
run             ${compress_loop}        # 每轮给足够松弛时间
run             10000        
Generated 0 of 1 mixed pair_coeff terms from geometric mixing rule
Per MPI rank memory allocation (min/avg/max) = 11.24 | 11.24 | 11.24 Mbytes
   Step        Atoms          Lx             Ly           v_phi          Press          KinEng        c_ke_rot   
    200000         512   33.41292       33.41292       0.53308036     2.0431788      0              0            
    205000         512   33.41292       33.41292       0.53308036     4.6800022e-05  1.205517e-06   0            
    210000         512   33.41292       33.41292       0.53308036     5.6482709e-07  1.1170094e-09  0            
Loop time of 0.08632 on 8 procs for 10000 steps with 512 atoms

Performance: 500463.392 tau/day, 115848.007 timesteps/s, 59.314 Matom-step/s
104.1% CPU use with 8 MPI tasks x 1 OpenMP threads

MPI task timing breakdown:
Section |  min time  |  avg time  |  max time  |%varavg| %total
---------------------------------------------------------------
Pair    | 0.00512    | 0.0058633  | 0.006488   |   0.7 |  6.79
Neigh   | 0          | 0          | 0          |   0.0 |  0.00
Comm    | 0.036028   | 0.038193   | 0.040807   |   0.8 | 44.25
Output  | 0.000491   | 0.00068175 | 0.000944   |   0.0 |  0.79
Modify  | 0.011881   | 0.012434   | 0.013215   |   0.4 | 14.40
Other   |            | 0.02915    |            |       | 33.77

Nlocal:             64 ave          68 max          59 min
Histogram: 1 0 1 0 1 1 2 0 1 1
Nghost:         48.625 ave          55 max          35 min
Histogram: 1 0 0 0 1 1 0 1 1 3
Neighs:        142.625 ave         166 max         122 min
Histogram: 2 0 1 1 0 1 0 1 0 2

Total # of neighbors = 1141
Ave neighs/atom = 2.2285156
Neighbor list builds = 0
Dangerous builds = 0
print           "${i} ${st} ${phi} ${pr} ${KEtot}" append ${logfile}
print           "${i} ${st} ${phi} ${pr} ${KEtot}" append compress_rate/compress_rate_0.0001/log_compress_rate_0.0001.txt
16 210000 0.533080360987082 5.64827093413364e-07 5.7190879933825e-07
print           "${i} ${st} ${phi} ${pr} ${KEtot}" append ${pressfile}
print           "${i} ${st} ${phi} ${pr} ${KEtot}" append compress_rate/compress_rate_0.0001/press_phi_compress_rate_0.0001.txt
16 210000 0.533080360987082 5.64827093413364e-07 5.7190879933825e-07
next            i
jump            SELF loop_compress
variable        i loop ${ncycle}
variable        i loop 150
# @before(压缩之前的我不关注)
change_box      all x scale ${scale} y scale ${scale} remap units box
change_box      all x scale 0.998 y scale ${scale} remap units box
change_box      all x scale 0.998 y scale 0.998 remap units box
Changing box ...
  orthogonal box = (0.57721807 0.54380515 -0.1) to (33.923313 33.956726 0.1)
  orthogonal box = (0.57721807 0.57721807 -0.1) to (33.923313 33.923313 0.1)
velocity        all set 0.0 0.0 0.0       # 压缩后清零速度，避免把上一轮残余动量带进来
# @after
run             ${compress_loop}        # 每轮给足够松弛时间
run             10000        
Generated 0 of 1 mixed pair_coeff terms from geometric mixing rule
Per MPI rank memory allocation (min/avg/max) = 11.24 | 11.24 | 11.24 Mbytes
   Step        Atoms          Lx             Ly           v_phi          Press          KinEng        c_ke_rot   
    210000         512   33.346095      33.346095      0.5352191      1.8761746      0              0            
    215000         512   33.346095      33.346095      0.5352191      5.5886074e-05  1.1647222e-06  0            
    220000         512   33.346095      33.346095      0.5352191      4.3911006e-07  1.0832977e-09  0            
Loop time of 0.0757829 on 8 procs for 10000 steps with 512 atoms

Performance: 570049.632 tau/day, 131955.933 timesteps/s, 67.561 Matom-step/s
100.5% CPU use with 8 MPI tasks x 1 OpenMP threads

MPI task timing breakdown:
Section |  min time  |  avg time  |  max time  |%varavg| %total
---------------------------------------------------------------
Pair    | 0.004946   | 0.0056056  | 0.006862   |   1.0 |  7.40
Neigh   | 0          | 0          | 0          |   0.0 |  0.00
Comm    | 0.032448   | 0.034044   | 0.035171   |   0.5 | 44.92
Output  | 0.000504   | 0.00067325 | 0.000797   |   0.0 |  0.89
Modify  | 0.011113   | 0.012031   | 0.012794   |   0.5 | 15.88
Other   |            | 0.02343    |            |       | 30.91

Nlocal:             64 ave          68 max          59 min
Histogram: 1 0 1 0 1 1 2 0 1 1
Nghost:           48.5 ave          55 max          35 min
Histogram: 1 0 0 1 0 1 0 1 1 3
Neighs:         143.25 ave         166 max         122 min
Histogram: 2 0 1 1 0 1 0 1 0 2

Total # of neighbors = 1146
Ave neighs/atom = 2.2382812
Neighbor list builds = 0
Dangerous builds = 0
print           "${i} ${st} ${phi} ${pr} ${KEtot}" append ${logfile}
print           "${i} ${st} ${phi} ${pr} ${KEtot}" append compress_rate/compress_rate_0.0001/log_compress_rate_0.0001.txt
17 220000 0.535219096496683 4.39110058432775e-07 5.54648446737378e-07
print           "${i} ${st} ${phi} ${pr} ${KEtot}" append ${pressfile}
print           "${i} ${st} ${phi} ${pr} ${KEtot}" append compress_rate/compress_rate_0.0001/press_phi_compress_rate_0.0001.txt
17 220000 0.535219096496683 4.39110058432775e-07 5.54648446737378e-07
next            i
jump            SELF loop_compress
variable        i loop ${ncycle}
variable        i loop 150
# @before(压缩之前的我不关注)
change_box      all x scale ${scale} y scale ${scale} remap units box
change_box      all x scale 0.998 y scale ${scale} remap units box
change_box      all x scale 0.998 y scale 0.998 remap units box
Changing box ...
  orthogonal box = (0.61056416 0.57721807 -0.1) to (33.889967 33.923313 0.1)
  orthogonal box = (0.61056416 0.61056416 -0.1) to (33.889967 33.889967 0.1)
velocity        all set 0.0 0.0 0.0       # 压缩后清零速度，避免把上一轮残余动量带进来
# @after
run             ${compress_loop}        # 每轮给足够松弛时间
run             10000        
Generated 0 of 1 mixed pair_coeff terms from geometric mixing rule
Per MPI rank memory allocation (min/avg/max) = 11.24 | 11.24 | 11.24 Mbytes
   Step        Atoms          Lx             Ly           v_phi          Press          KinEng        c_ke_rot   
    220000         512   33.279402      33.279402      0.53736641     2.0249917      0              0            
    225000         512   33.279402      33.279402      0.53736641     3.4055525e-05  1.1978615e-06  0            
    230000         512   33.279402      33.279402      0.53736641     3.1650525e-07  1.1177127e-09  0            
Loop time of 0.0829655 on 8 procs for 10000 steps with 512 atoms

Performance: 520698.363 tau/day, 120532.028 timesteps/s, 61.712 Matom-step/s
94.2% CPU use with 8 MPI tasks x 1 OpenMP threads

MPI task timing breakdown:
Section |  min time  |  avg time  |  max time  |%varavg| %total
---------------------------------------------------------------
Pair    | 0.004985   | 0.0055915  | 0.006592   |   0.8 |  6.74
Neigh   | 0          | 0          | 0          |   0.0 |  0.00
Comm    | 0.034392   | 0.036171   | 0.039204   |   0.9 | 43.60
Output  | 0.0007     | 0.00086125 | 0.000989   |   0.0 |  1.04
Modify  | 0.011813   | 0.01218    | 0.012691   |   0.3 | 14.68
Other   |            | 0.02816    |            |       | 33.94

Nlocal:             64 ave          68 max          59 min
Histogram: 1 0 1 0 1 1 2 0 1 1
Nghost:          48.75 ave          55 max          35 min
Histogram: 1 0 0 0 1 1 0 1 1 3
Neighs:        143.875 ave         166 max         122 min
Histogram: 1 1 1 1 0 1 0 1 0 2

Total # of neighbors = 1151
Ave neighs/atom = 2.2480469
Neighbor list builds = 0
Dangerous builds = 0
print           "${i} ${st} ${phi} ${pr} ${KEtot}" append ${logfile}
print           "${i} ${st} ${phi} ${pr} ${KEtot}" append compress_rate/compress_rate_0.0001/log_compress_rate_0.0001.txt
18 230000 0.537366412681759 3.16505251433592e-07 5.7226891477624e-07
print           "${i} ${st} ${phi} ${pr} ${KEtot}" append ${pressfile}
print           "${i} ${st} ${phi} ${pr} ${KEtot}" append compress_rate/compress_rate_0.0001/press_phi_compress_rate_0.0001.txt
18 230000 0.537366412681759 3.16505251433592e-07 5.7226891477624e-07
next            i
jump            SELF loop_compress
variable        i loop ${ncycle}
variable        i loop 150
# @before(压缩之前的我不关注)
change_box      all x scale ${scale} y scale ${scale} remap units box
change_box      all x scale 0.998 y scale ${scale} remap units box
change_box      all x scale 0.998 y scale 0.998 remap units box
Changing box ...
  orthogonal box = (0.64384356 0.61056416 -0.1) to (33.856687 33.889967 0.1)
  orthogonal box = (0.64384356 0.64384356 -0.1) to (33.856687 33.856687 0.1)
velocity        all set 0.0 0.0 0.0       # 压缩后清零速度，避免把上一轮残余动量带进来
# @after
run             ${compress_loop}        # 每轮给足够松弛时间
run             10000        
Generated 0 of 1 mixed pair_coeff terms from geometric mixing rule
Per MPI rank memory allocation (min/avg/max) = 11.24 | 11.24 | 11.24 Mbytes
   Step        Atoms          Lx             Ly           v_phi          Press          KinEng        c_ke_rot   
    230000         512   33.212844      33.212844      0.53952234     2.2124725      0              0            
    235000         512   33.212844      33.212844      0.53952234     4.5002198e-05  1.3804924e-06  0            
    240000         512   33.212844      33.212844      0.53952234     2.5373691e-07  1.2926712e-09  0            
Loop time of 0.0856158 on 8 procs for 10000 steps with 512 atoms

Performance: 504580.057 tau/day, 116800.939 timesteps/s, 59.802 Matom-step/s
107.2% CPU use with 8 MPI tasks x 1 OpenMP threads

MPI task timing breakdown:
Section |  min time  |  avg time  |  max time  |%varavg| %total
---------------------------------------------------------------
Pair    | 0.004924   | 0.0058006  | 0.006729   |   0.7 |  6.78
Neigh   | 0          | 0          | 0          |   0.0 |  0.00
Comm    | 0.034557   | 0.037223   | 0.040431   |   0.9 | 43.48
Output  | 0.000548   | 0.00076063 | 0.000939   |   0.0 |  0.89
Modify  | 0.011405   | 0.0124     | 0.013298   |   0.5 | 14.48
Other   |            | 0.02943    |            |       | 34.38

Nlocal:             64 ave          68 max          59 min
Histogram: 1 0 1 0 1 1 2 0 1 1
Nghost:             49 ave          56 max          35 min
Histogram: 1 0 0 1 0 1 0 1 1 3
Neighs:        144.625 ave         166 max         122 min
Histogram: 1 1 1 1 0 0 1 1 0 2

Total # of neighbors = 1157
Ave neighs/atom = 2.2597656
Neighbor list builds = 0
Dangerous builds = 0
print           "${i} ${st} ${phi} ${pr} ${KEtot}" append ${logfile}
print           "${i} ${st} ${phi} ${pr} ${KEtot}" append compress_rate/compress_rate_0.0001/log_compress_rate_0.0001.txt
19 240000 0.539522343968257 2.53736912542223e-07 6.61847639272317e-07
print           "${i} ${st} ${phi} ${pr} ${KEtot}" append ${pressfile}
print           "${i} ${st} ${phi} ${pr} ${KEtot}" append compress_rate/compress_rate_0.0001/press_phi_compress_rate_0.0001.txt
19 240000 0.539522343968257 2.53736912542223e-07 6.61847639272317e-07
next            i
jump            SELF loop_compress
variable        i loop ${ncycle}
variable        i loop 150
# @before(压缩之前的我不关注)
change_box      all x scale ${scale} y scale ${scale} remap units box
change_box      all x scale 0.998 y scale ${scale} remap units box
change_box      all x scale 0.998 y scale 0.998 remap units box
Changing box ...
  orthogonal box = (0.67705641 0.64384356 -0.1) to (33.823474 33.856687 0.1)
  orthogonal box = (0.67705641 0.67705641 -0.1) to (33.823474 33.823474 0.1)
velocity        all set 0.0 0.0 0.0       # 压缩后清零速度，避免把上一轮残余动量带进来
# @after
run             ${compress_loop}        # 每轮给足够松弛时间
run             10000        
Generated 0 of 1 mixed pair_coeff terms from geometric mixing rule
Per MPI rank memory allocation (min/avg/max) = 11.24 | 11.24 | 11.24 Mbytes
   Step        Atoms          Lx             Ly           v_phi          Press          KinEng        c_ke_rot   
    240000         512   33.146418      33.146418      0.54168692     2.0647325      0              0            
    245000         512   33.146418      33.146418      0.54168692     1.756657e-05   1.394454e-06   0            
    250000         512   33.146418      33.146418      0.54168692     2.6667798e-07  1.3060614e-09  0            
Loop time of 0.0903912 on 8 procs for 10000 steps with 512 atoms

Performance: 477922.365 tau/day, 110630.177 timesteps/s, 56.643 Matom-step/s
95.1% CPU use with 8 MPI tasks x 1 OpenMP threads

MPI task timing breakdown:
Section |  min time  |  avg time  |  max time  |%varavg| %total
---------------------------------------------------------------
Pair    | 0.005287   | 0.0059635  | 0.007351   |   0.9 |  6.60
Neigh   | 0          | 0          | 0          |   0.0 |  0.00
Comm    | 0.038124   | 0.039633   | 0.041329   |   0.5 | 43.85
Output  | 0.000555   | 0.00071688 | 0.000844   |   0.0 |  0.79
Modify  | 0.011372   | 0.012475   | 0.013006   |   0.5 | 13.80
Other   |            | 0.0316     |            |       | 34.96

Nlocal:             64 ave          68 max          59 min
Histogram: 1 0 1 0 1 1 2 0 1 1
Nghost:         49.375 ave          56 max          35 min
Histogram: 1 0 0 0 1 1 0 0 2 3
Neighs:          145.5 ave         168 max         122 min
Histogram: 1 1 1 0 1 1 0 1 0 2

Total # of neighbors = 1164
Ave neighs/atom = 2.2734375
Neighbor list builds = 0
Dangerous builds = 0
print           "${i} ${st} ${phi} ${pr} ${KEtot}" append ${logfile}
print           "${i} ${st} ${phi} ${pr} ${KEtot}" append compress_rate/compress_rate_0.0001/log_compress_rate_0.0001.txt
20 250000 0.541686924920238 2.6667797930042e-07 6.68703435366471e-07
print           "${i} ${st} ${phi} ${pr} ${KEtot}" append ${pressfile}
print           "${i} ${st} ${phi} ${pr} ${KEtot}" append compress_rate/compress_rate_0.0001/press_phi_compress_rate_0.0001.txt
20 250000 0.541686924920238 2.6667797930042e-07 6.68703435366471e-07
next            i
jump            SELF loop_compress
variable        i loop ${ncycle}
variable        i loop 150
# @before(压缩之前的我不关注)
change_box      all x scale ${scale} y scale ${scale} remap units box
change_box      all x scale 0.998 y scale ${scale} remap units box
change_box      all x scale 0.998 y scale 0.998 remap units box
Changing box ...
  orthogonal box = (0.71020283 0.67705641 -0.1) to (33.790328 33.823474 0.1)
  orthogonal box = (0.71020283 0.71020283 -0.1) to (33.790328 33.790328 0.1)
velocity        all set 0.0 0.0 0.0       # 压缩后清零速度，避免把上一轮残余动量带进来
# @after
run             ${compress_loop}        # 每轮给足够松弛时间
run             10000        
Generated 0 of 1 mixed pair_coeff terms from geometric mixing rule
Per MPI rank memory allocation (min/avg/max) = 11.24 | 11.24 | 11.24 Mbytes
   Step        Atoms          Lx             Ly           v_phi          Press          KinEng        c_ke_rot   
    250000         512   33.080125      33.080125      0.54386019     1.8577148      0              0            
    255000         512   33.080125      33.080125      0.54386019     0.00025743046  1.0540671e-06  0            
    260000         512   33.080125      33.080125      0.54386019     5.0737377e-07  9.5919322e-10  0            
Loop time of 0.0781951 on 8 procs for 10000 steps with 512 atoms

Performance: 552464.108 tau/day, 127885.210 timesteps/s, 65.477 Matom-step/s
97.4% CPU use with 8 MPI tasks x 1 OpenMP threads

MPI task timing breakdown:
Section |  min time  |  avg time  |  max time  |%varavg| %total
---------------------------------------------------------------
Pair    | 0.004753   | 0.005679   | 0.006906   |   0.9 |  7.26
Neigh   | 0          | 0          | 0          |   0.0 |  0.00
Comm    | 0.033504   | 0.034664   | 0.036267   |   0.5 | 44.33
Output  | 0.000445   | 0.0007505  | 0.001042   |   0.0 |  0.96
Modify  | 0.011256   | 0.011975   | 0.012766   |   0.4 | 15.31
Other   |            | 0.02513    |            |       | 32.13

Nlocal:             64 ave          68 max          59 min
Histogram: 1 0 1 0 1 1 2 0 1 1
Nghost:           49.5 ave          56 max          35 min
Histogram: 1 0 0 0 1 1 0 0 2 3
Neighs:         145.75 ave         169 max         122 min
Histogram: 1 1 1 0 1 1 0 1 0 2

Total # of neighbors = 1166
Ave neighs/atom = 2.2773438
Neighbor list builds = 0
Dangerous builds = 0
print           "${i} ${st} ${phi} ${pr} ${KEtot}" append ${logfile}
print           "${i} ${st} ${phi} ${pr} ${KEtot}" append compress_rate/compress_rate_0.0001/log_compress_rate_0.0001.txt
21 260000 0.543860190240438 5.07373770548738e-07 4.91106929561974e-07
print           "${i} ${st} ${phi} ${pr} ${KEtot}" append ${pressfile}
print           "${i} ${st} ${phi} ${pr} ${KEtot}" append compress_rate/compress_rate_0.0001/press_phi_compress_rate_0.0001.txt
21 260000 0.543860190240438 5.07373770548738e-07 4.91106929561974e-07
next            i
jump            SELF loop_compress
variable        i loop ${ncycle}
variable        i loop 150
# @before(压缩之前的我不关注)
change_box      all x scale ${scale} y scale ${scale} remap units box
change_box      all x scale 0.998 y scale ${scale} remap units box
change_box      all x scale 0.998 y scale 0.998 remap units box
Changing box ...
  orthogonal box = (0.74328295 0.71020283 -0.1) to (33.757248 33.790328 0.1)
  orthogonal box = (0.74328295 0.74328295 -0.1) to (33.757248 33.757248 0.1)
velocity        all set 0.0 0.0 0.0       # 压缩后清零速度，避免把上一轮残余动量带进来
# @after
run             ${compress_loop}        # 每轮给足够松弛时间
run             10000        
Generated 0 of 1 mixed pair_coeff terms from geometric mixing rule
Per MPI rank memory allocation (min/avg/max) = 11.24 | 11.24 | 11.24 Mbytes
   Step        Atoms          Lx             Ly           v_phi          Press          KinEng        c_ke_rot   
    260000         512   33.013965      33.013965      0.54604217     2.4464049      0              0            
    265000         512   33.013965      33.013965      0.54604217     0.00018560276  1.5311584e-06  0            
    270000         512   33.013965      33.013965      0.54604217     5.0138243e-07  1.4105906e-09  0            
Loop time of 0.0814008 on 8 procs for 10000 steps with 512 atoms

Performance: 530707.641 tau/day, 122848.991 timesteps/s, 62.899 Matom-step/s
93.6% CPU use with 8 MPI tasks x 1 OpenMP threads

MPI task timing breakdown:
Section |  min time  |  avg time  |  max time  |%varavg| %total
---------------------------------------------------------------
Pair    | 0.005227   | 0.0057776  | 0.006917   |   0.8 |  7.10
Neigh   | 0          | 0          | 0          |   0.0 |  0.00
Comm    | 0.033454   | 0.035733   | 0.039887   |   1.1 | 43.90
Output  | 0.000572   | 0.00066525 | 0.000788   |   0.0 |  0.82
Modify  | 0.011534   | 0.012058   | 0.012476   |   0.3 | 14.81
Other   |            | 0.02717    |            |       | 33.37

Nlocal:             64 ave          68 max          59 min
Histogram: 1 0 1 0 1 1 2 0 1 1
Nghost:           49.5 ave          56 max          35 min
Histogram: 1 0 0 0 1 1 0 0 2 3
Neighs:         146.75 ave         169 max         125 min
Histogram: 2 0 1 0 1 1 0 1 0 2

Total # of neighbors = 1174
Ave neighs/atom = 2.2929688
Neighbor list builds = 0
Dangerous builds = 0
print           "${i} ${st} ${phi} ${pr} ${KEtot}" append ${logfile}
print           "${i} ${st} ${phi} ${pr} ${KEtot}" append compress_rate/compress_rate_0.0001/log_compress_rate_0.0001.txt
22 270000 0.546042174770823 5.01382431312812e-07 7.22222363641327e-07
print           "${i} ${st} ${phi} ${pr} ${KEtot}" append ${pressfile}
print           "${i} ${st} ${phi} ${pr} ${KEtot}" append compress_rate/compress_rate_0.0001/press_phi_compress_rate_0.0001.txt
22 270000 0.546042174770823 5.01382431312812e-07 7.22222363641327e-07
next            i
jump            SELF loop_compress
variable        i loop ${ncycle}
variable        i loop 150
# @before(压缩之前的我不关注)
change_box      all x scale ${scale} y scale ${scale} remap units box
change_box      all x scale 0.998 y scale ${scale} remap units box
change_box      all x scale 0.998 y scale 0.998 remap units box
Changing box ...
  orthogonal box = (0.77629692 0.74328295 -0.1) to (33.724234 33.757248 0.1)
  orthogonal box = (0.77629692 0.77629692 -0.1) to (33.724234 33.724234 0.1)
velocity        all set 0.0 0.0 0.0       # 压缩后清零速度，避免把上一轮残余动量带进来
# @after
run             ${compress_loop}        # 每轮给足够松弛时间
run             10000        
Generated 0 of 1 mixed pair_coeff terms from geometric mixing rule
Per MPI rank memory allocation (min/avg/max) = 11.24 | 11.24 | 11.24 Mbytes
   Step        Atoms          Lx             Ly           v_phi          Press          KinEng        c_ke_rot   
    270000         512   32.947937      32.947937      0.54823291     2.0566944      0              0            
    275000         512   32.947937      32.947937      0.54823291     5.1932398e-05  1.3546098e-06  0            
    280000         512   32.947937      32.947937      0.54823291     3.8643038e-07  1.2575358e-09  0            
Loop time of 0.0798444 on 8 procs for 10000 steps with 512 atoms

Performance: 541052.516 tau/day, 125243.638 timesteps/s, 64.125 Matom-step/s
97.8% CPU use with 8 MPI tasks x 1 OpenMP threads

MPI task timing breakdown:
Section |  min time  |  avg time  |  max time  |%varavg| %total
---------------------------------------------------------------
Pair    | 0.005337   | 0.0057765  | 0.006665   |   0.5 |  7.23
Neigh   | 0          | 0          | 0          |   0.0 |  0.00
Comm    | 0.033804   | 0.035547   | 0.037692   |   0.6 | 44.52
Output  | 0.000554   | 0.0007175  | 0.000884   |   0.0 |  0.90
Modify  | 0.011313   | 0.012117   | 0.012795   |   0.4 | 15.18
Other   |            | 0.02569    |            |       | 32.17

Nlocal:             64 ave          68 max          59 min
Histogram: 1 0 1 0 1 1 2 0 1 1
Nghost:         49.625 ave          56 max          35 min
Histogram: 1 0 0 0 1 1 0 0 2 3
Neighs:        147.125 ave         171 max         124 min
Histogram: 2 0 1 0 1 1 0 1 0 2

Total # of neighbors = 1177
Ave neighs/atom = 2.2988281
Neighbor list builds = 0
Dangerous builds = 0
print           "${i} ${st} ${phi} ${pr} ${KEtot}" append ${logfile}
print           "${i} ${st} ${phi} ${pr} ${KEtot}" append compress_rate/compress_rate_0.0001/log_compress_rate_0.0001.txt
23 280000 0.548232913493141 3.8643037611852e-07 6.4385834410572e-07
print           "${i} ${st} ${phi} ${pr} ${KEtot}" append ${pressfile}
print           "${i} ${st} ${phi} ${pr} ${KEtot}" append compress_rate/compress_rate_0.0001/press_phi_compress_rate_0.0001.txt
23 280000 0.548232913493141 3.8643037611852e-07 6.4385834410572e-07
next            i
jump            SELF loop_compress
variable        i loop ${ncycle}
variable        i loop 150
# @before(压缩之前的我不关注)
change_box      all x scale ${scale} y scale ${scale} remap units box
change_box      all x scale 0.998 y scale ${scale} remap units box
change_box      all x scale 0.998 y scale 0.998 remap units box
Changing box ...
  orthogonal box = (0.80924485 0.77629692 -0.1) to (33.691286 33.724234 0.1)
  orthogonal box = (0.80924485 0.80924485 -0.1) to (33.691286 33.691286 0.1)
velocity        all set 0.0 0.0 0.0       # 压缩后清零速度，避免把上一轮残余动量带进来
# @after
run             ${compress_loop}        # 每轮给足够松弛时间
run             10000        
Generated 0 of 1 mixed pair_coeff terms from geometric mixing rule
Per MPI rank memory allocation (min/avg/max) = 11.24 | 11.24 | 11.24 Mbytes
   Step        Atoms          Lx             Ly           v_phi          Press          KinEng        c_ke_rot   
    280000         512   32.882041      32.882041      0.55043244     2.7060765      0              0            
    285000         512   32.882041      32.882041      0.55043244     8.9778781e-05  1.8387599e-06  0            
    290000         512   32.882041      32.882041      0.55043244     6.057069e-07   1.690591e-09   0            
Loop time of 0.0836822 on 8 procs for 10000 steps with 512 atoms

Performance: 516238.509 tau/day, 119499.655 timesteps/s, 61.184 Matom-step/s
107.4% CPU use with 8 MPI tasks x 1 OpenMP threads

MPI task timing breakdown:
Section |  min time  |  avg time  |  max time  |%varavg| %total
---------------------------------------------------------------
Pair    | 0.005083   | 0.0059856  | 0.006962   |   0.9 |  7.15
Neigh   | 0          | 0          | 0          |   0.0 |  0.00
Comm    | 0.035048   | 0.036889   | 0.038612   |   0.6 | 44.08
Output  | 0.000606   | 0.0007105  | 0.000874   |   0.0 |  0.85
Modify  | 0.011243   | 0.012063   | 0.01246    |   0.3 | 14.41
Other   |            | 0.02803    |            |       | 33.50

Nlocal:             64 ave          68 max          59 min
Histogram: 1 0 1 0 1 1 2 0 1 1
Nghost:         49.625 ave          56 max          35 min
Histogram: 1 0 0 0 1 1 0 0 2 3
Neighs:         148.25 ave         171 max         126 min
Histogram: 2 0 1 0 1 1 0 1 0 2

Total # of neighbors = 1186
Ave neighs/atom = 2.3164062
Neighbor list builds = 0
Dangerous builds = 0
print           "${i} ${st} ${phi} ${pr} ${KEtot}" append ${logfile}
print           "${i} ${st} ${phi} ${pr} ${KEtot}" append compress_rate/compress_rate_0.0001/log_compress_rate_0.0001.txt
24 290000 0.550432441529493 6.05706899445572e-07 8.65582576834681e-07
print           "${i} ${st} ${phi} ${pr} ${KEtot}" append ${pressfile}
print           "${i} ${st} ${phi} ${pr} ${KEtot}" append compress_rate/compress_rate_0.0001/press_phi_compress_rate_0.0001.txt
24 290000 0.550432441529493 6.05706899445572e-07 8.65582576834681e-07
next            i
jump            SELF loop_compress
variable        i loop ${ncycle}
variable        i loop 150
# @before(压缩之前的我不关注)
change_box      all x scale ${scale} y scale ${scale} remap units box
change_box      all x scale 0.998 y scale ${scale} remap units box
change_box      all x scale 0.998 y scale 0.998 remap units box
Changing box ...
  orthogonal box = (0.84212689 0.80924485 -0.1) to (33.658404 33.691286 0.1)
  orthogonal box = (0.84212689 0.84212689 -0.1) to (33.658404 33.658404 0.1)
velocity        all set 0.0 0.0 0.0       # 压缩后清零速度，避免把上一轮残余动量带进来
# @after
run             ${compress_loop}        # 每轮给足够松弛时间
run             10000        
Generated 0 of 1 mixed pair_coeff terms from geometric mixing rule
Per MPI rank memory allocation (min/avg/max) = 11.24 | 11.24 | 11.24 Mbytes
   Step        Atoms          Lx             Ly           v_phi          Press          KinEng        c_ke_rot   
    290000         512   32.816277      32.816277      0.55264079     2.4710525      0              0            
    295000         512   32.816277      32.816277      0.55264079     0.00014681374  1.3771643e-06  0            
    300000         512   32.816277      32.816277      0.55264079     6.3459586e-07  1.2649574e-09  0            
Loop time of 0.0762909 on 8 procs for 10000 steps with 512 atoms

Performance: 566253.828 tau/day, 131077.275 timesteps/s, 67.112 Matom-step/s
94.7% CPU use with 8 MPI tasks x 1 OpenMP threads

MPI task timing breakdown:
Section |  min time  |  avg time  |  max time  |%varavg| %total
---------------------------------------------------------------
Pair    | 0.005044   | 0.0057575  | 0.007019   |   0.8 |  7.55
Neigh   | 0          | 0          | 0          |   0.0 |  0.00
Comm    | 0.032418   | 0.034458   | 0.036755   |   0.8 | 45.17
Output  | 0.000576   | 0.00072413 | 0.000936   |   0.0 |  0.95
Modify  | 0.010998   | 0.011888   | 0.012426   |   0.4 | 15.58
Other   |            | 0.02346    |            |       | 30.75

Nlocal:             64 ave          68 max          59 min
Histogram: 1 0 1 0 1 1 2 0 1 1
Nghost:          49.75 ave          56 max          36 min
Histogram: 1 0 0 0 1 1 0 0 2 3
Neighs:         148.75 ave         172 max         126 min
Histogram: 2 0 1 0 1 1 0 1 1 1

Total # of neighbors = 1190
Ave neighs/atom = 2.3242188
Neighbor list builds = 0
Dangerous builds = 0
print           "${i} ${st} ${phi} ${pr} ${KEtot}" append ${logfile}
print           "${i} ${st} ${phi} ${pr} ${KEtot}" append compress_rate/compress_rate_0.0001/log_compress_rate_0.0001.txt
25 300000 0.552640794142888 6.34595863421354e-07 6.47658212318708e-07
print           "${i} ${st} ${phi} ${pr} ${KEtot}" append ${pressfile}
print           "${i} ${st} ${phi} ${pr} ${KEtot}" append compress_rate/compress_rate_0.0001/press_phi_compress_rate_0.0001.txt
25 300000 0.552640794142888 6.34595863421354e-07 6.47658212318708e-07
next            i
jump            SELF loop_compress
variable        i loop ${ncycle}
variable        i loop 150
# @before(压缩之前的我不关注)
change_box      all x scale ${scale} y scale ${scale} remap units box
change_box      all x scale 0.998 y scale ${scale} remap units box
change_box      all x scale 0.998 y scale 0.998 remap units box
Changing box ...
  orthogonal box = (0.87494317 0.84212689 -0.1) to (33.625588 33.658404 0.1)
  orthogonal box = (0.87494317 0.87494317 -0.1) to (33.625588 33.625588 0.1)
velocity        all set 0.0 0.0 0.0       # 压缩后清零速度，避免把上一轮残余动量带进来
# @after
run             ${compress_loop}        # 每轮给足够松弛时间
run             10000        
Generated 0 of 1 mixed pair_coeff terms from geometric mixing rule
Per MPI rank memory allocation (min/avg/max) = 11.24 | 11.24 | 11.24 Mbytes
   Step        Atoms          Lx             Ly           v_phi          Press          KinEng        c_ke_rot   
    300000         512   32.750644      32.750644      0.55485801     2.6767917      0              0            
    305000         512   32.750644      32.750644      0.55485801     0.00019694778  1.6631088e-06  0            
    310000         512   32.750644      32.750644      0.55485801     4.1772918e-07  1.5465387e-09  0            
Loop time of 0.0854154 on 8 procs for 10000 steps with 512 atoms

Performance: 505763.746 tau/day, 117074.941 timesteps/s, 59.942 Matom-step/s
86.9% CPU use with 8 MPI tasks x 1 OpenMP threads

MPI task timing breakdown:
Section |  min time  |  avg time  |  max time  |%varavg| %total
---------------------------------------------------------------
Pair    | 0.0051     | 0.005985   | 0.006883   |   0.8 |  7.01
Neigh   | 0          | 0          | 0          |   0.0 |  0.00
Comm    | 0.036398   | 0.037748   | 0.039176   |   0.5 | 44.19
Output  | 0.000547   | 0.00065038 | 0.000785   |   0.0 |  0.76
Modify  | 0.01138    | 0.012288   | 0.012925   |   0.4 | 14.39
Other   |            | 0.02874    |            |       | 33.65

Nlocal:             64 ave          68 max          59 min
Histogram: 1 0 1 0 1 1 2 0 1 1
Nghost:         50.125 ave          57 max          36 min
Histogram: 1 0 0 1 1 0 0 0 2 3
Neighs:         149.75 ave         173 max         129 min
Histogram: 2 1 0 0 1 1 0 1 1 1

Total # of neighbors = 1198
Ave neighs/atom = 2.3398438
Neighbor list builds = 0
Dangerous builds = 0
print           "${i} ${st} ${phi} ${pr} ${KEtot}" append ${logfile}
print           "${i} ${st} ${phi} ${pr} ${KEtot}" append compress_rate/compress_rate_0.0001/log_compress_rate_0.0001.txt
26 310000 0.554858006737812 4.17729181052463e-07 7.91827817986701e-07
print           "${i} ${st} ${phi} ${pr} ${KEtot}" append ${pressfile}
print           "${i} ${st} ${phi} ${pr} ${KEtot}" append compress_rate/compress_rate_0.0001/press_phi_compress_rate_0.0001.txt
26 310000 0.554858006737812 4.17729181052463e-07 7.91827817986701e-07
next            i
jump            SELF loop_compress
variable        i loop ${ncycle}
variable        i loop 150
# @before(压缩之前的我不关注)
change_box      all x scale ${scale} y scale ${scale} remap units box
change_box      all x scale 0.998 y scale ${scale} remap units box
change_box      all x scale 0.998 y scale 0.998 remap units box
Changing box ...
  orthogonal box = (0.90769382 0.87494317 -0.1) to (33.592837 33.625588 0.1)
  orthogonal box = (0.90769382 0.90769382 -0.1) to (33.592837 33.592837 0.1)
velocity        all set 0.0 0.0 0.0       # 压缩后清零速度，避免把上一轮残余动量带进来
# @after
run             ${compress_loop}        # 每轮给足够松弛时间
run             10000        
Generated 0 of 1 mixed pair_coeff terms from geometric mixing rule
Per MPI rank memory allocation (min/avg/max) = 11.24 | 11.24 | 11.24 Mbytes
   Step        Atoms          Lx             Ly           v_phi          Press          KinEng        c_ke_rot   
    310000         512   32.685143      32.685143      0.55708411     2.5403709      0              0            
    315000         512   32.685143      32.685143      0.55708411     7.4484681e-05  1.5468826e-06  0            
    320000         512   32.685143      32.685143      0.55708411     8.3692489e-07  1.4255303e-09  0            
Loop time of 0.081528 on 8 procs for 10000 steps with 512 atoms

Performance: 529879.305 tau/day, 122657.247 timesteps/s, 62.801 Matom-step/s
112.6% CPU use with 8 MPI tasks x 1 OpenMP threads

MPI task timing breakdown:
Section |  min time  |  avg time  |  max time  |%varavg| %total
---------------------------------------------------------------
Pair    | 0.004913   | 0.005883   | 0.006864   |   0.8 |  7.22
Neigh   | 0          | 0          | 0          |   0.0 |  0.00
Comm    | 0.034627   | 0.035994   | 0.037149   |   0.5 | 44.15
Output  | 0.000741   | 0.00090812 | 0.001109   |   0.0 |  1.11
Modify  | 0.011267   | 0.012139   | 0.013144   |   0.5 | 14.89
Other   |            | 0.0266     |            |       | 32.63

Nlocal:             64 ave          68 max          59 min
Histogram: 1 0 1 0 1 1 2 0 1 1
Nghost:         50.125 ave          57 max          37 min
Histogram: 1 0 0 1 1 0 0 0 2 3
Neighs:        149.875 ave         173 max         129 min
Histogram: 2 0 1 0 1 1 0 1 1 1

Total # of neighbors = 1199
Ave neighs/atom = 2.3417969
Neighbor list builds = 0
Dangerous builds = 0
print           "${i} ${st} ${phi} ${pr} ${KEtot}" append ${logfile}
print           "${i} ${st} ${phi} ${pr} ${KEtot}" append compress_rate/compress_rate_0.0001/log_compress_rate_0.0001.txt
27 320000 0.557084114860796 8.36924885221036e-07 7.29871528859258e-07
print           "${i} ${st} ${phi} ${pr} ${KEtot}" append ${pressfile}
print           "${i} ${st} ${phi} ${pr} ${KEtot}" append compress_rate/compress_rate_0.0001/press_phi_compress_rate_0.0001.txt
27 320000 0.557084114860796 8.36924885221036e-07 7.29871528859258e-07
next            i
jump            SELF loop_compress
variable        i loop ${ncycle}
variable        i loop 150
# @before(压缩之前的我不关注)
change_box      all x scale ${scale} y scale ${scale} remap units box
change_box      all x scale 0.998 y scale ${scale} remap units box
change_box      all x scale 0.998 y scale 0.998 remap units box
Changing box ...
  orthogonal box = (0.94037896 0.90769382 -0.1) to (33.560152 33.592837 0.1)
  orthogonal box = (0.94037896 0.94037896 -0.1) to (33.560152 33.560152 0.1)
velocity        all set 0.0 0.0 0.0       # 压缩后清零速度，避免把上一轮残余动量带进来
# @after
run             ${compress_loop}        # 每轮给足够松弛时间
run             10000        
Generated 0 of 1 mixed pair_coeff terms from geometric mixing rule
Per MPI rank memory allocation (min/avg/max) = 11.24 | 11.24 | 11.24 Mbytes
   Step        Atoms          Lx             Ly           v_phi          Press          KinEng        c_ke_rot   
    320000         512   32.619773      32.619773      0.55931915     3.3378078      0              0            
    325000         512   32.619773      32.619773      0.55931915     9.3532133e-05  2.1307832e-06  0            
    330000         512   32.619773      32.619773      0.55931915     7.2817743e-07  1.9714839e-09  0            
Loop time of 0.0865439 on 8 procs for 10000 steps with 512 atoms

Performance: 499168.774 tau/day, 115548.327 timesteps/s, 59.161 Matom-step/s
88.0% CPU use with 8 MPI tasks x 1 OpenMP threads

MPI task timing breakdown:
Section |  min time  |  avg time  |  max time  |%varavg| %total
---------------------------------------------------------------
Pair    | 0.005346   | 0.0062441  | 0.007066   |   0.9 |  7.21
Neigh   | 0          | 0          | 0          |   0.0 |  0.00
Comm    | 0.036319   | 0.037959   | 0.03893    |   0.5 | 43.86
Output  | 0.000637   | 0.00083725 | 0.001025   |   0.0 |  0.97
Modify  | 0.011582   | 0.012226   | 0.012535   |   0.3 | 14.13
Other   |            | 0.02928    |            |       | 33.83

Nlocal:             64 ave          68 max          59 min
Histogram: 1 0 1 0 1 1 2 0 1 1
Nghost:         50.125 ave          57 max          37 min
Histogram: 1 0 0 1 1 0 0 0 2 3
Neighs:          150.5 ave         175 max         129 min
Histogram: 2 0 1 0 1 1 0 1 1 1

Total # of neighbors = 1204
Ave neighs/atom = 2.3515625
Neighbor list builds = 0
Dangerous builds = 0
print           "${i} ${st} ${phi} ${pr} ${KEtot}" append ${logfile}
print           "${i} ${st} ${phi} ${pr} ${KEtot}" append compress_rate/compress_rate_0.0001/log_compress_rate_0.0001.txt
28 330000 0.559319154200983 7.28177428733025e-07 1.00939977686868e-06
print           "${i} ${st} ${phi} ${pr} ${KEtot}" append ${pressfile}
print           "${i} ${st} ${phi} ${pr} ${KEtot}" append compress_rate/compress_rate_0.0001/press_phi_compress_rate_0.0001.txt
28 330000 0.559319154200983 7.28177428733025e-07 1.00939977686868e-06
next            i
jump            SELF loop_compress
variable        i loop ${ncycle}
variable        i loop 150
# @before(压缩之前的我不关注)
change_box      all x scale ${scale} y scale ${scale} remap units box
change_box      all x scale 0.998 y scale ${scale} remap units box
change_box      all x scale 0.998 y scale 0.998 remap units box
Changing box ...
  orthogonal box = (0.97299873 0.94037896 -0.1) to (33.527532 33.560152 0.1)
  orthogonal box = (0.97299873 0.97299873 -0.1) to (33.527532 33.527532 0.1)
velocity        all set 0.0 0.0 0.0       # 压缩后清零速度，避免把上一轮残余动量带进来
# @after
run             ${compress_loop}        # 每轮给足够松弛时间
run             10000        
Generated 0 of 1 mixed pair_coeff terms from geometric mixing rule
Per MPI rank memory allocation (min/avg/max) = 11.24 | 11.24 | 11.24 Mbytes
   Step        Atoms          Lx             Ly           v_phi          Press          KinEng        c_ke_rot   
    330000         512   32.554533      32.554533      0.56156316     3.2567443      0              0            
    335000         512   32.554533      32.554533      0.56156316     5.3889932e-05  2.195588e-06   0            
    340000         512   32.554533      32.554533      0.56156316     8.0609726e-07  2.032302e-09   0            
Loop time of 0.0771675 on 8 procs for 10000 steps with 512 atoms

Performance: 559821.168 tau/day, 129588.233 timesteps/s, 66.349 Matom-step/s
101.2% CPU use with 8 MPI tasks x 1 OpenMP threads

MPI task timing breakdown:
Section |  min time  |  avg time  |  max time  |%varavg| %total
---------------------------------------------------------------
Pair    | 0.005277   | 0.0060298  | 0.007203   |   0.9 |  7.81
Neigh   | 0          | 0          | 0          |   0.0 |  0.00
Comm    | 0.032879   | 0.034405   | 0.036811   |   0.8 | 44.58
Output  | 0.000816   | 0.000983   | 0.001137   |   0.0 |  1.27
Modify  | 0.011302   | 0.01202    | 0.012473   |   0.3 | 15.58
Other   |            | 0.02373    |            |       | 30.75

Nlocal:             64 ave          68 max          59 min
Histogram: 1 0 1 0 1 1 2 0 1 1
Nghost:         50.125 ave          57 max          37 min
Histogram: 1 0 0 1 1 0 0 0 2 3
Neighs:            151 ave         177 max         129 min
Histogram: 2 0 1 1 0 1 1 1 0 1

Total # of neighbors = 1208
Ave neighs/atom = 2.359375
Neighbor list builds = 0
Dangerous builds = 0
print           "${i} ${st} ${phi} ${pr} ${KEtot}" append ${logfile}
print           "${i} ${st} ${phi} ${pr} ${KEtot}" append compress_rate/compress_rate_0.0001/log_compress_rate_0.0001.txt
29 340000 0.561563160590704 8.06097261787406e-07 1.04053862091666e-06
print           "${i} ${st} ${phi} ${pr} ${KEtot}" append ${pressfile}
print           "${i} ${st} ${phi} ${pr} ${KEtot}" append compress_rate/compress_rate_0.0001/press_phi_compress_rate_0.0001.txt
29 340000 0.561563160590704 8.06097261787406e-07 1.04053862091666e-06
next            i
jump            SELF loop_compress
variable        i loop ${ncycle}
variable        i loop 150
# @before(压缩之前的我不关注)
change_box      all x scale ${scale} y scale ${scale} remap units box
change_box      all x scale 0.998 y scale ${scale} remap units box
change_box      all x scale 0.998 y scale 0.998 remap units box
Changing box ...
  orthogonal box = (1.0055533 0.97299873 -0.1) to (33.494978 33.527532 0.1)
  orthogonal box = (1.0055533 1.0055533 -0.1) to (33.494978 33.494978 0.1)
velocity        all set 0.0 0.0 0.0       # 压缩后清零速度，避免把上一轮残余动量带进来
# @after
run             ${compress_loop}        # 每轮给足够松弛时间
run             10000        
Generated 0 of 1 mixed pair_coeff terms from geometric mixing rule
Per MPI rank memory allocation (min/avg/max) = 11.24 | 11.24 | 11.24 Mbytes
   Step        Atoms          Lx             Ly           v_phi          Press          KinEng        c_ke_rot   
    340000         512   32.489424      32.489424      0.56381617     2.9401677      0              0            
    345000         512   32.489424      32.489424      0.56381617     0.00011925893  1.8715966e-06  0            
    350000         512   32.489424      32.489424      0.56381617     8.4098144e-07  1.7194377e-09  0            
Loop time of 0.0849305 on 8 procs for 10000 steps with 512 atoms

Performance: 508651.191 tau/day, 117743.331 timesteps/s, 60.285 Matom-step/s
105.8% CPU use with 8 MPI tasks x 1 OpenMP threads

MPI task timing breakdown:
Section |  min time  |  avg time  |  max time  |%varavg| %total
---------------------------------------------------------------
Pair    | 0.005235   | 0.0063369  | 0.007671   |   1.1 |  7.46
Neigh   | 0          | 0          | 0          |   0.0 |  0.00
Comm    | 0.035115   | 0.037307   | 0.039392   |   0.8 | 43.93
Output  | 0.000566   | 0.00066275 | 0.000776   |   0.0 |  0.78
Modify  | 0.011232   | 0.012037   | 0.012815   |   0.5 | 14.17
Other   |            | 0.02859    |            |       | 33.66

Nlocal:             64 ave          68 max          59 min
Histogram: 1 0 1 0 1 1 2 0 1 1
Nghost:         50.375 ave          57 max          37 min
Histogram: 1 0 0 1 1 0 0 0 1 4
Neighs:        151.375 ave         178 max         129 min
Histogram: 2 0 1 1 0 1 1 1 0 1

Total # of neighbors = 1211
Ave neighs/atom = 2.3652344
Neighbor list builds = 0
Dangerous builds = 0
print           "${i} ${st} ${phi} ${pr} ${KEtot}" append ${logfile}
print           "${i} ${st} ${phi} ${pr} ${KEtot}" append compress_rate/compress_rate_0.0001/log_compress_rate_0.0001.txt
30 350000 0.563816170006048 8.40981435351758e-07 8.8035210651098e-07
print           "${i} ${st} ${phi} ${pr} ${KEtot}" append ${pressfile}
print           "${i} ${st} ${phi} ${pr} ${KEtot}" append compress_rate/compress_rate_0.0001/press_phi_compress_rate_0.0001.txt
30 350000 0.563816170006048 8.40981435351758e-07 8.8035210651098e-07
next            i
jump            SELF loop_compress
variable        i loop ${ncycle}
variable        i loop 150
# @before(压缩之前的我不关注)
change_box      all x scale ${scale} y scale ${scale} remap units box
change_box      all x scale 0.998 y scale ${scale} remap units box
change_box      all x scale 0.998 y scale 0.998 remap units box
Changing box ...
  orthogonal box = (1.0380427 1.0055533 -0.1) to (33.462488 33.494978 0.1)
  orthogonal box = (1.0380427 1.0380427 -0.1) to (33.462488 33.462488 0.1)
velocity        all set 0.0 0.0 0.0       # 压缩后清零速度，避免把上一轮残余动量带进来
# @after
run             ${compress_loop}        # 每轮给足够松弛时间
run             10000        
Generated 0 of 1 mixed pair_coeff terms from geometric mixing rule
Per MPI rank memory allocation (min/avg/max) = 11.24 | 11.24 | 11.24 Mbytes
   Step        Atoms          Lx             Ly           v_phi          Press          KinEng        c_ke_rot   
    350000         512   32.424445      32.424445      0.56607822     3.3265222      0              0            
    355000         512   32.424445      32.424445      0.56607822     0.00016592148  2.0617062e-06  0            
    360000         512   32.424445      32.424445      0.56607822     1.0763354e-06  1.8872815e-09  0            
Loop time of 0.0772662 on 8 procs for 10000 steps with 512 atoms

Performance: 559105.690 tau/day, 129422.613 timesteps/s, 66.264 Matom-step/s
98.6% CPU use with 8 MPI tasks x 1 OpenMP threads

MPI task timing breakdown:
Section |  min time  |  avg time  |  max time  |%varavg| %total
---------------------------------------------------------------
Pair    | 0.005175   | 0.0060855  | 0.007032   |   0.8 |  7.88
Neigh   | 0          | 0          | 0          |   0.0 |  0.00
Comm    | 0.032385   | 0.03436    | 0.036617   |   0.8 | 44.47
Output  | 0.000582   | 0.0007475  | 0.00088    |   0.0 |  0.97
Modify  | 0.011093   | 0.011853   | 0.012494   |   0.4 | 15.34
Other   |            | 0.02422    |            |       | 31.35

Nlocal:             64 ave          68 max          59 min
Histogram: 1 0 1 0 1 1 2 0 1 1
Nghost:         50.375 ave          57 max          37 min
Histogram: 1 0 0 1 1 0 0 0 1 4
Neighs:        152.125 ave         178 max         129 min
Histogram: 2 0 1 0 1 1 1 0 1 1

Total # of neighbors = 1217
Ave neighs/atom = 2.3769531
Neighbor list builds = 0
Dangerous builds = 0
print           "${i} ${st} ${phi} ${pr} ${KEtot}" append ${logfile}
print           "${i} ${st} ${phi} ${pr} ${KEtot}" append compress_rate/compress_rate_0.0001/log_compress_rate_0.0001.txt
31 360000 0.566078218567443 1.07633536526545e-06 9.6628812440017e-07
print           "${i} ${st} ${phi} ${pr} ${KEtot}" append ${pressfile}
print           "${i} ${st} ${phi} ${pr} ${KEtot}" append compress_rate/compress_rate_0.0001/press_phi_compress_rate_0.0001.txt
31 360000 0.566078218567443 1.07633536526545e-06 9.6628812440017e-07
next            i
jump            SELF loop_compress
variable        i loop ${ncycle}
variable        i loop 150
# @before(压缩之前的我不关注)
change_box      all x scale ${scale} y scale ${scale} remap units box
change_box      all x scale 0.998 y scale ${scale} remap units box
change_box      all x scale 0.998 y scale 0.998 remap units box
Changing box ...
  orthogonal box = (1.0704671 1.0380427 -0.1) to (33.430064 33.462488 0.1)
  orthogonal box = (1.0704671 1.0704671 -0.1) to (33.430064 33.430064 0.1)
velocity        all set 0.0 0.0 0.0       # 压缩后清零速度，避免把上一轮残余动量带进来
# @after
run             ${compress_loop}        # 每轮给足够松弛时间
run             10000        
Generated 0 of 1 mixed pair_coeff terms from geometric mixing rule
Per MPI rank memory allocation (min/avg/max) = 11.24 | 11.24 | 11.24 Mbytes
   Step        Atoms          Lx             Ly           v_phi          Press          KinEng        c_ke_rot   
    360000         512   32.359597      32.359597      0.56834934     3.4862895      0              0            
    365000         512   32.359597      32.359597      0.56834934     0.00012476176  2.6139208e-06  0            
    370000         512   32.359597      32.359597      0.56834934     1.4652077e-06  2.4033256e-09  0            
Loop time of 0.0923755 on 8 procs for 10000 steps with 512 atoms

Performance: 467656.467 tau/day, 108253.812 timesteps/s, 55.426 Matom-step/s
97.3% CPU use with 8 MPI tasks x 1 OpenMP threads

MPI task timing breakdown:
Section |  min time  |  avg time  |  max time  |%varavg| %total
---------------------------------------------------------------
Pair    | 0.005761   | 0.0065694  | 0.007869   |   0.9 |  7.11
Neigh   | 0          | 0          | 0          |   0.0 |  0.00
Comm    | 0.03849    | 0.040198   | 0.042949   |   0.7 | 43.52
Output  | 0.000726   | 0.00084888 | 0.000977   |   0.0 |  0.92
Modify  | 0.011455   | 0.012244   | 0.013155   |   0.4 | 13.25
Other   |            | 0.03252    |            |       | 35.20

Nlocal:             64 ave          68 max          59 min
Histogram: 1 0 1 0 1 1 2 0 1 1
Nghost:           50.5 ave          57 max          37 min
Histogram: 1 0 0 1 1 0 0 0 1 4
Neighs:        153.375 ave         179 max         129 min
Histogram: 1 1 1 0 1 0 2 0 1 1

Total # of neighbors = 1227
Ave neighs/atom = 2.3964844
Neighbor list builds = 0
Dangerous builds = 0
print           "${i} ${st} ${phi} ${pr} ${KEtot}" append ${logfile}
print           "${i} ${st} ${phi} ${pr} ${KEtot}" append compress_rate/compress_rate_0.0001/log_compress_rate_0.0001.txt
32 370000 0.568349342540234 1.46520773326287e-06 1.23050270247302e-06
print           "${i} ${st} ${phi} ${pr} ${KEtot}" append ${pressfile}
print           "${i} ${st} ${phi} ${pr} ${KEtot}" append compress_rate/compress_rate_0.0001/press_phi_compress_rate_0.0001.txt
32 370000 0.568349342540234 1.46520773326287e-06 1.23050270247302e-06
next            i
jump            SELF loop_compress
variable        i loop ${ncycle}
variable        i loop 150
# @before(压缩之前的我不关注)
change_box      all x scale ${scale} y scale ${scale} remap units box
change_box      all x scale 0.998 y scale ${scale} remap units box
change_box      all x scale 0.998 y scale 0.998 remap units box
Changing box ...
  orthogonal box = (1.1028267 1.0704671 -0.1) to (33.397704 33.430064 0.1)
  orthogonal box = (1.1028267 1.1028267 -0.1) to (33.397704 33.397704 0.1)
velocity        all set 0.0 0.0 0.0       # 压缩后清零速度，避免把上一轮残余动量带进来
# @after
run             ${compress_loop}        # 每轮给足够松弛时间
run             10000        
Generated 0 of 1 mixed pair_coeff terms from geometric mixing rule
Per MPI rank memory allocation (min/avg/max) = 11.24 | 11.24 | 11.24 Mbytes
   Step        Atoms          Lx             Ly           v_phi          Press          KinEng        c_ke_rot   
    370000         512   32.294877      32.294877      0.57062958     3.7230771      0              0            
    375000         512   32.294877      32.294877      0.57062958     0.00029365885  2.7701303e-06  0            
    380000         512   32.294877      32.294877      0.57062958     1.786496e-06   2.5287704e-09  0            
Loop time of 0.0782561 on 8 procs for 10000 steps with 512 atoms

Performance: 552033.467 tau/day, 127785.525 timesteps/s, 65.426 Matom-step/s
97.3% CPU use with 8 MPI tasks x 1 OpenMP threads

MPI task timing breakdown:
Section |  min time  |  avg time  |  max time  |%varavg| %total
---------------------------------------------------------------
Pair    | 0.005205   | 0.0063179  | 0.007371   |   0.9 |  8.07
Neigh   | 0          | 0          | 0          |   0.0 |  0.00
Comm    | 0.032491   | 0.034699   | 0.037733   |   1.0 | 44.34
Output  | 0.000669   | 0.00091712 | 0.001183   |   0.0 |  1.17
Modify  | 0.011134   | 0.011876   | 0.012652   |   0.4 | 15.18
Other   |            | 0.02445    |            |       | 31.24

Nlocal:             64 ave          68 max          59 min
Histogram: 1 0 1 0 1 1 2 0 1 1
Nghost:          50.75 ave          58 max          37 min
Histogram: 1 0 1 0 1 0 0 0 2 3
Neighs:        153.875 ave         179 max         130 min
Histogram: 2 0 1 0 1 0 2 0 1 1

Total # of neighbors = 1231
Ave neighs/atom = 2.4042969
Neighbor list builds = 0
Dangerous builds = 0
print           "${i} ${st} ${phi} ${pr} ${KEtot}" append ${logfile}
print           "${i} ${st} ${phi} ${pr} ${KEtot}" append compress_rate/compress_rate_0.0001/log_compress_rate_0.0001.txt
33 380000 0.570629578335262 1.78649599159536e-06 1.29473047029197e-06
print           "${i} ${st} ${phi} ${pr} ${KEtot}" append ${pressfile}
print           "${i} ${st} ${phi} ${pr} ${KEtot}" append compress_rate/compress_rate_0.0001/press_phi_compress_rate_0.0001.txt
33 380000 0.570629578335262 1.78649599159536e-06 1.29473047029197e-06
next            i
jump            SELF loop_compress
variable        i loop ${ncycle}
variable        i loop 150
# @before(压缩之前的我不关注)
change_box      all x scale ${scale} y scale ${scale} remap units box
change_box      all x scale 0.998 y scale ${scale} remap units box
change_box      all x scale 0.998 y scale 0.998 remap units box
Changing box ...
  orthogonal box = (1.1351216 1.1028267 -0.1) to (33.365409 33.397704 0.1)
  orthogonal box = (1.1351216 1.1351216 -0.1) to (33.365409 33.365409 0.1)
velocity        all set 0.0 0.0 0.0       # 压缩后清零速度，避免把上一轮残余动量带进来
# @after
run             ${compress_loop}        # 每轮给足够松弛时间
run             10000        
Generated 0 of 1 mixed pair_coeff terms from geometric mixing rule
Per MPI rank memory allocation (min/avg/max) = 11.24 | 11.24 | 11.24 Mbytes
   Step        Atoms          Lx             Ly           v_phi          Press          KinEng        c_ke_rot   
    380000         512   32.230288      32.230288      0.57291896     3.6743969      0              0            
    385000         512   32.230288      32.230288      0.57291896     0.00018447164  2.7501854e-06  0            
    390000         512   32.230288      32.230288      0.57291896     1.9830047e-06  2.5127272e-09  0            
Loop time of 0.0853653 on 8 procs for 10000 steps with 512 atoms

Performance: 506060.721 tau/day, 117143.686 timesteps/s, 59.978 Matom-step/s
109.8% CPU use with 8 MPI tasks x 1 OpenMP threads

MPI task timing breakdown:
Section |  min time  |  avg time  |  max time  |%varavg| %total
---------------------------------------------------------------
Pair    | 0.005118   | 0.0065745  | 0.00833    |   1.4 |  7.70
Neigh   | 0          | 0          | 0          |   0.0 |  0.00
Comm    | 0.034736   | 0.037213   | 0.039706   |   1.0 | 43.59
Output  | 0.000767   | 0.00088063 | 0.001001   |   0.0 |  1.03
Modify  | 0.011324   | 0.01199    | 0.012463   |   0.4 | 14.05
Other   |            | 0.02871    |            |       | 33.63

Nlocal:             64 ave          68 max          59 min
Histogram: 1 0 1 0 1 1 2 0 1 1
Nghost:         51.375 ave          58 max          38 min
Histogram: 1 0 0 1 1 0 0 0 2 3
Neighs:        154.875 ave         180 max         131 min
Histogram: 2 0 0 1 1 1 1 0 1 1

Total # of neighbors = 1239
Ave neighs/atom = 2.4199219
Neighbor list builds = 0
Dangerous builds = 0
print           "${i} ${st} ${phi} ${pr} ${KEtot}" append ${logfile}
print           "${i} ${st} ${phi} ${pr} ${KEtot}" append compress_rate/compress_rate_0.0001/log_compress_rate_0.0001.txt
34 390000 0.57291896250945 1.98300472492437e-06 1.28651634492434e-06
print           "${i} ${st} ${phi} ${pr} ${KEtot}" append ${pressfile}
print           "${i} ${st} ${phi} ${pr} ${KEtot}" append compress_rate/compress_rate_0.0001/press_phi_compress_rate_0.0001.txt
34 390000 0.57291896250945 1.98300472492437e-06 1.28651634492434e-06
next            i
jump            SELF loop_compress
variable        i loop ${ncycle}
variable        i loop 150
# @before(压缩之前的我不关注)
change_box      all x scale ${scale} y scale ${scale} remap units box
change_box      all x scale 0.998 y scale ${scale} remap units box
change_box      all x scale 0.998 y scale 0.998 remap units box
Changing box ...
  orthogonal box = (1.1673519 1.1351216 -0.1) to (33.333179 33.365409 0.1)
  orthogonal box = (1.1673519 1.1673519 -0.1) to (33.333179 33.333179 0.1)
velocity        all set 0.0 0.0 0.0       # 压缩后清零速度，避免把上一轮残余动量带进来
# @after
run             ${compress_loop}        # 每轮给足够松弛时间
run             10000        
Generated 0 of 1 mixed pair_coeff terms from geometric mixing rule
Per MPI rank memory allocation (min/avg/max) = 11.24 | 11.24 | 11.24 Mbytes
   Step        Atoms          Lx             Ly           v_phi          Press          KinEng        c_ke_rot   
    390000         512   32.165827      32.165827      0.57521753     3.7510195      0              0            
    395000         512   32.165827      32.165827      0.57521753     0.00038515292  2.1139543e-06  0            
    400000         512   32.165827      32.165827      0.57521753     1.3129331e-06  1.8939858e-09  0            
Loop time of 0.0784506 on 8 procs for 10000 steps with 512 atoms

Performance: 550664.829 tau/day, 127468.710 timesteps/s, 65.264 Matom-step/s
97.1% CPU use with 8 MPI tasks x 1 OpenMP threads

MPI task timing breakdown:
Section |  min time  |  avg time  |  max time  |%varavg| %total
---------------------------------------------------------------
Pair    | 0.005434   | 0.006312   | 0.007274   |   0.7 |  8.05
Neigh   | 0          | 0          | 0          |   0.0 |  0.00
Comm    | 0.032914   | 0.03504    | 0.038715   |   1.2 | 44.67
Output  | 0.000581   | 0.00071563 | 0.000884   |   0.0 |  0.91
Modify  | 0.011486   | 0.01188    | 0.012331   |   0.3 | 15.14
Other   |            | 0.0245     |            |       | 31.23

Nlocal:             64 ave          68 max          59 min
Histogram: 1 0 1 0 1 1 2 0 1 1
Nghost:         51.375 ave          58 max          38 min
Histogram: 1 0 0 1 1 0 0 0 2 3
Neighs:          155.5 ave         180 max         132 min
Histogram: 2 0 0 1 1 1 1 0 1 1

Total # of neighbors = 1244
Ave neighs/atom = 2.4296875
Neighbor list builds = 0
Dangerous builds = 0
print           "${i} ${st} ${phi} ${pr} ${KEtot}" append ${logfile}
print           "${i} ${st} ${phi} ${pr} ${KEtot}" append compress_rate/compress_rate_0.0001/log_compress_rate_0.0001.txt
35 400000 0.575217531766388 1.31293307251617e-06 9.69720708576885e-07
print           "${i} ${st} ${phi} ${pr} ${KEtot}" append ${pressfile}
print           "${i} ${st} ${phi} ${pr} ${KEtot}" append compress_rate/compress_rate_0.0001/press_phi_compress_rate_0.0001.txt
35 400000 0.575217531766388 1.31293307251617e-06 9.69720708576885e-07
next            i
jump            SELF loop_compress
variable        i loop ${ncycle}
variable        i loop 150
# @before(压缩之前的我不关注)
change_box      all x scale ${scale} y scale ${scale} remap units box
change_box      all x scale 0.998 y scale ${scale} remap units box
change_box      all x scale 0.998 y scale 0.998 remap units box
Changing box ...
  orthogonal box = (1.1995177 1.1673519 -0.1) to (33.301013 33.333179 0.1)
  orthogonal box = (1.1995177 1.1995177 -0.1) to (33.301013 33.301013 0.1)
velocity        all set 0.0 0.0 0.0       # 压缩后清零速度，避免把上一轮残余动量带进来
# @after
run             ${compress_loop}        # 每轮给足够松弛时间
run             10000        
Generated 0 of 1 mixed pair_coeff terms from geometric mixing rule
Per MPI rank memory allocation (min/avg/max) = 11.24 | 11.24 | 11.24 Mbytes
   Step        Atoms          Lx             Ly           v_phi          Press          KinEng        c_ke_rot   
    400000         512   32.101495      32.101495      0.57752532     3.6950487      0              0            
    405000         512   32.101495      32.101495      0.57752532     0.00089288956  2.8343556e-06  0            
    410000         512   32.101495      32.101495      0.57752532     7.4917551e-07  2.601742e-09   0            
Loop time of 0.0832467 on 8 procs for 10000 steps with 512 atoms

Performance: 518939.178 tau/day, 120124.810 timesteps/s, 61.504 Matom-step/s
93.8% CPU use with 8 MPI tasks x 1 OpenMP threads

MPI task timing breakdown:
Section |  min time  |  avg time  |  max time  |%varavg| %total
---------------------------------------------------------------
Pair    | 0.005305   | 0.0064426  | 0.007624   |   0.9 |  7.74
Neigh   | 0          | 0          | 0          |   0.0 |  0.00
Comm    | 0.035019   | 0.03672    | 0.038612   |   0.6 | 44.11
Output  | 0.000769   | 0.00089737 | 0.001049   |   0.0 |  1.08
Modify  | 0.01112    | 0.012015   | 0.012633   |   0.4 | 14.43
Other   |            | 0.02717    |            |       | 32.64

Nlocal:             64 ave          68 max          59 min
Histogram: 1 0 1 0 1 1 2 0 1 1
Nghost:         51.375 ave          58 max          38 min
Histogram: 1 0 0 1 1 0 0 0 2 3
Neighs:        156.125 ave         181 max         132 min
Histogram: 2 0 0 1 1 1 1 0 1 1

Total # of neighbors = 1249
Ave neighs/atom = 2.4394531
Neighbor list builds = 0
Dangerous builds = 0
print           "${i} ${st} ${phi} ${pr} ${KEtot}" append ${logfile}
print           "${i} ${st} ${phi} ${pr} ${KEtot}" append compress_rate/compress_rate_0.0001/log_compress_rate_0.0001.txt
36 410000 0.577525322956925 7.49175509704083e-07 1.33209190451164e-06
print           "${i} ${st} ${phi} ${pr} ${KEtot}" append ${pressfile}
print           "${i} ${st} ${phi} ${pr} ${KEtot}" append compress_rate/compress_rate_0.0001/press_phi_compress_rate_0.0001.txt
36 410000 0.577525322956925 7.49175509704083e-07 1.33209190451164e-06
next            i
jump            SELF loop_compress
variable        i loop ${ncycle}
variable        i loop 150
# @before(压缩之前的我不关注)
change_box      all x scale ${scale} y scale ${scale} remap units box
change_box      all x scale 0.998 y scale ${scale} remap units box
change_box      all x scale 0.998 y scale 0.998 remap units box
Changing box ...
  orthogonal box = (1.2316192 1.1995177 -0.1) to (33.268912 33.301013 0.1)
  orthogonal box = (1.2316192 1.2316192 -0.1) to (33.268912 33.268912 0.1)
velocity        all set 0.0 0.0 0.0       # 压缩后清零速度，避免把上一轮残余动量带进来
# @after
run             ${compress_loop}        # 每轮给足够松弛时间
run             10000        
Generated 0 of 1 mixed pair_coeff terms from geometric mixing rule
Per MPI rank memory allocation (min/avg/max) = 11.24 | 11.24 | 11.24 Mbytes
   Step        Atoms          Lx             Ly           v_phi          Press          KinEng        c_ke_rot   
    410000         512   32.037292      32.037292      0.57984237     3.7007602      0              0            
    415000         512   32.037292      32.037292      0.57984237     0.00025313083  2.8583524e-06  0            
    420000         512   32.037292      32.037292      0.57984237     1.4028529e-06  2.6433676e-09  0            
Loop time of 0.0749554 on 8 procs for 10000 steps with 512 atoms

Performance: 576342.924 tau/day, 133412.714 timesteps/s, 68.307 Matom-step/s
101.6% CPU use with 8 MPI tasks x 1 OpenMP threads

MPI task timing breakdown:
Section |  min time  |  avg time  |  max time  |%varavg| %total
---------------------------------------------------------------
Pair    | 0.00507    | 0.0065219  | 0.007643   |   0.9 |  8.70
Neigh   | 0          | 0          | 0          |   0.0 |  0.00
Comm    | 0.032801   | 0.033775   | 0.035288   |   0.5 | 45.06
Output  | 0.000542   | 0.00067738 | 0.000846   |   0.0 |  0.90
Modify  | 0.010882   | 0.011688   | 0.012478   |   0.4 | 15.59
Other   |            | 0.02229    |            |       | 29.74

Nlocal:             64 ave          68 max          59 min
Histogram: 1 0 1 0 1 1 2 0 1 1
Nghost:         51.375 ave          58 max          38 min
Histogram: 1 0 0 1 1 0 0 0 2 3
Neighs:        156.875 ave         180 max         135 min
Histogram: 2 0 0 1 1 1 1 0 1 1

Total # of neighbors = 1255
Ave neighs/atom = 2.4511719
Neighbor list builds = 0
Dangerous builds = 0
print           "${i} ${st} ${phi} ${pr} ${KEtot}" append ${logfile}
print           "${i} ${st} ${phi} ${pr} ${KEtot}" append compress_rate/compress_rate_0.0001/log_compress_rate_0.0001.txt
37 420000 0.579842373079751 1.40285286687934e-06 1.35340421669285e-06
print           "${i} ${st} ${phi} ${pr} ${KEtot}" append ${pressfile}
print           "${i} ${st} ${phi} ${pr} ${KEtot}" append compress_rate/compress_rate_0.0001/press_phi_compress_rate_0.0001.txt
37 420000 0.579842373079751 1.40285286687934e-06 1.35340421669285e-06
next            i
jump            SELF loop_compress
variable        i loop ${ncycle}
variable        i loop 150
# @before(压缩之前的我不关注)
change_box      all x scale ${scale} y scale ${scale} remap units box
change_box      all x scale 0.998 y scale ${scale} remap units box
change_box      all x scale 0.998 y scale 0.998 remap units box
Changing box ...
  orthogonal box = (1.2636565 1.2316192 -0.1) to (33.236874 33.268912 0.1)
  orthogonal box = (1.2636565 1.2636565 -0.1) to (33.236874 33.236874 0.1)
velocity        all set 0.0 0.0 0.0       # 压缩后清零速度，避免把上一轮残余动量带进来
# @after
run             ${compress_loop}        # 每轮给足够松弛时间
run             10000        
Generated 0 of 1 mixed pair_coeff terms from geometric mixing rule
Per MPI rank memory allocation (min/avg/max) = 11.24 | 11.24 | 11.24 Mbytes
   Step        Atoms          Lx             Ly           v_phi          Press          KinEng        c_ke_rot   
    420000         512   31.973218      31.973218      0.58216872     3.9027326      0              0            
    425000         512   31.973218      31.973218      0.58216872     0.00015185685  2.562494e-06   0            
    430000         512   31.973218      31.973218      0.58216872     1.4523313e-06  2.3565023e-09  0            
Loop time of 0.088893 on 8 procs for 10000 steps with 512 atoms

Performance: 485977.524 tau/day, 112494.797 timesteps/s, 57.597 Matom-step/s
103.3% CPU use with 8 MPI tasks x 1 OpenMP threads

MPI task timing breakdown:
Section |  min time  |  avg time  |  max time  |%varavg| %total
---------------------------------------------------------------
Pair    | 0.005569   | 0.0067906  | 0.007683   |   0.8 |  7.64
Neigh   | 0          | 0          | 0          |   0.0 |  0.00
Comm    | 0.037458   | 0.038832   | 0.040107   |   0.5 | 43.68
Output  | 0.000861   | 0.0010484  | 0.001256   |   0.4 |  1.18
Modify  | 0.011599   | 0.012242   | 0.013198   |   0.5 | 13.77
Other   |            | 0.02998    |            |       | 33.73

Nlocal:             64 ave          68 max          59 min
Histogram: 1 0 1 0 1 1 2 0 1 1
Nghost:           51.5 ave          58 max          38 min
Histogram: 1 0 0 1 1 0 0 0 1 4
Neighs:            157 ave         180 max         135 min
Histogram: 2 0 0 1 1 1 1 0 1 1

Total # of neighbors = 1256
Ave neighs/atom = 2.453125
Neighbor list builds = 0
Dangerous builds = 0
print           "${i} ${st} ${phi} ${pr} ${KEtot}" append ${logfile}
print           "${i} ${st} ${phi} ${pr} ${KEtot}" append compress_rate/compress_rate_0.0001/log_compress_rate_0.0001.txt
38 430000 0.582168719282002 1.45233134076226e-06 1.20652918271442e-06
print           "${i} ${st} ${phi} ${pr} ${KEtot}" append ${pressfile}
print           "${i} ${st} ${phi} ${pr} ${KEtot}" append compress_rate/compress_rate_0.0001/press_phi_compress_rate_0.0001.txt
38 430000 0.582168719282002 1.45233134076226e-06 1.20652918271442e-06
next            i
jump            SELF loop_compress
variable        i loop ${ncycle}
variable        i loop 150
# @before(压缩之前的我不关注)
change_box      all x scale ${scale} y scale ${scale} remap units box
change_box      all x scale 0.998 y scale ${scale} remap units box
change_box      all x scale 0.998 y scale 0.998 remap units box
Changing box ...
  orthogonal box = (1.2956297 1.2636565 -0.1) to (33.204901 33.236874 0.1)
  orthogonal box = (1.2956297 1.2956297 -0.1) to (33.204901 33.204901 0.1)
velocity        all set 0.0 0.0 0.0       # 压缩后清零速度，避免把上一轮残余动量带进来
# @after
run             ${compress_loop}        # 每轮给足够松弛时间
run             10000        
Generated 0 of 1 mixed pair_coeff terms from geometric mixing rule
Per MPI rank memory allocation (min/avg/max) = 11.24 | 11.24 | 11.24 Mbytes
   Step        Atoms          Lx             Ly           v_phi          Press          KinEng        c_ke_rot   
    430000         512   31.909271      31.909271      0.5845044      4.1653146      0              0            
    435000         512   31.909271      31.909271      0.5845044      0.00016045959  2.4155979e-06  0            
    440000         512   31.909271      31.909271      0.5845044      1.5413948e-06  2.2011735e-09  0            
Loop time of 0.0793777 on 8 procs for 10000 steps with 512 atoms

Performance: 544233.113 tau/day, 125979.887 timesteps/s, 64.502 Matom-step/s
98.4% CPU use with 8 MPI tasks x 1 OpenMP threads

MPI task timing breakdown:
Section |  min time  |  avg time  |  max time  |%varavg| %total
---------------------------------------------------------------
Pair    | 0.005568   | 0.0067211  | 0.008577   |   1.2 |  8.47
Neigh   | 0          | 0          | 0          |   0.0 |  0.00
Comm    | 0.033884   | 0.035244   | 0.038359   |   0.9 | 44.40
Output  | 0.000539   | 0.00067063 | 0.000801   |   0.0 |  0.84
Modify  | 0.011169   | 0.012037   | 0.012741   |   0.4 | 15.16
Other   |            | 0.0247     |            |       | 31.12

Nlocal:             64 ave          68 max          59 min
Histogram: 1 0 1 0 1 1 2 0 1 1
Nghost:         51.625 ave          58 max          38 min
Histogram: 1 0 0 1 1 0 0 0 1 4
Neighs:         157.25 ave         181 max         135 min
Histogram: 2 0 0 1 1 1 1 0 1 1

Total # of neighbors = 1258
Ave neighs/atom = 2.4570312
Neighbor list builds = 0
Dangerous builds = 0
print           "${i} ${st} ${phi} ${pr} ${KEtot}" append ${logfile}
print           "${i} ${st} ${phi} ${pr} ${KEtot}" append compress_rate/compress_rate_0.0001/log_compress_rate_0.0001.txt
39 440000 0.584504398859846 1.54139478968954e-06 1.12700081980779e-06
print           "${i} ${st} ${phi} ${pr} ${KEtot}" append ${pressfile}
print           "${i} ${st} ${phi} ${pr} ${KEtot}" append compress_rate/compress_rate_0.0001/press_phi_compress_rate_0.0001.txt
39 440000 0.584504398859846 1.54139478968954e-06 1.12700081980779e-06
next            i
jump            SELF loop_compress
variable        i loop ${ncycle}
variable        i loop 150
# @before(压缩之前的我不关注)
change_box      all x scale ${scale} y scale ${scale} remap units box
change_box      all x scale 0.998 y scale ${scale} remap units box
change_box      all x scale 0.998 y scale 0.998 remap units box
Changing box ...
  orthogonal box = (1.327539 1.2956297 -0.1) to (33.172992 33.204901 0.1)
  orthogonal box = (1.327539 1.327539 -0.1) to (33.172992 33.172992 0.1)
velocity        all set 0.0 0.0 0.0       # 压缩后清零速度，避免把上一轮残余动量带进来
# @after
run             ${compress_loop}        # 每轮给足够松弛时间
run             10000        
Generated 0 of 1 mixed pair_coeff terms from geometric mixing rule
Per MPI rank memory allocation (min/avg/max) = 11.24 | 11.24 | 11.24 Mbytes
   Step        Atoms          Lx             Ly           v_phi          Press          KinEng        c_ke_rot   
    440000         512   31.845453      31.845453      0.58684945     4.428788       0              0            
    445000         512   31.845453      31.845453      0.58684945     0.00013060533  3.1533961e-06  0            
    450000         512   31.845453      31.845453      0.58684945     1.2486843e-06  2.926694e-09   0            
Loop time of 0.0843028 on 8 procs for 10000 steps with 512 atoms

Performance: 512438.799 tau/day, 118620.092 timesteps/s, 60.733 Matom-step/s
106.6% CPU use with 8 MPI tasks x 1 OpenMP threads

MPI task timing breakdown:
Section |  min time  |  avg time  |  max time  |%varavg| %total
---------------------------------------------------------------
Pair    | 0.005675   | 0.006706   | 0.007623   |   0.9 |  7.95
Neigh   | 0          | 0          | 0          |   0.0 |  0.00
Comm    | 0.035923   | 0.037257   | 0.038861   |   0.5 | 44.19
Output  | 0.000592   | 0.00084525 | 0.001124   |   0.0 |  1.00
Modify  | 0.011285   | 0.012113   | 0.012931   |   0.5 | 14.37
Other   |            | 0.02738    |            |       | 32.48

Nlocal:             64 ave          68 max          58 min
Histogram: 1 0 0 1 0 0 2 2 0 2
Nghost:          51.75 ave          58 max          38 min
Histogram: 1 0 0 1 1 0 0 0 1 4
Neighs:            158 ave         182 max         135 min
Histogram: 2 0 0 1 1 1 1 0 1 1

Total # of neighbors = 1264
Ave neighs/atom = 2.46875
Neighbor list builds = 0
Dangerous builds = 0
print           "${i} ${st} ${phi} ${pr} ${KEtot}" append ${logfile}
print           "${i} ${st} ${phi} ${pr} ${KEtot}" append compress_rate/compress_rate_0.0001/log_compress_rate_0.0001.txt
40 450000 0.586849449259086 1.24868431665997e-06 1.49846731519816e-06
print           "${i} ${st} ${phi} ${pr} ${KEtot}" append ${pressfile}
print           "${i} ${st} ${phi} ${pr} ${KEtot}" append compress_rate/compress_rate_0.0001/press_phi_compress_rate_0.0001.txt
40 450000 0.586849449259086 1.24868431665997e-06 1.49846731519816e-06
next            i
jump            SELF loop_compress
variable        i loop ${ncycle}
variable        i loop 150
# @before(压缩之前的我不关注)
change_box      all x scale ${scale} y scale ${scale} remap units box
change_box      all x scale 0.998 y scale ${scale} remap units box
change_box      all x scale 0.998 y scale 0.998 remap units box
Changing box ...
  orthogonal box = (1.3593845 1.327539 -0.1) to (33.141146 33.172992 0.1)
  orthogonal box = (1.3593845 1.3593845 -0.1) to (33.141146 33.141146 0.1)
velocity        all set 0.0 0.0 0.0       # 压缩后清零速度，避免把上一轮残余动量带进来
# @after
run             ${compress_loop}        # 每轮给足够松弛时间
run             10000        
Generated 0 of 1 mixed pair_coeff terms from geometric mixing rule
Per MPI rank memory allocation (min/avg/max) = 11.24 | 11.24 | 11.24 Mbytes
   Step        Atoms          Lx             Ly           v_phi          Press          KinEng        c_ke_rot   
    450000         512   31.781762      31.781762      0.58920391     4.4449327      0              0            
    455000         512   31.781762      31.781762      0.58920391     0.00035607437  3.2595257e-06  0            
    460000         512   31.781762      31.781762      0.58920391     2.0798235e-06  2.9721806e-09  0            
Loop time of 0.0780329 on 8 procs for 10000 steps with 512 atoms

Performance: 553612.820 tau/day, 128151.116 timesteps/s, 65.613 Matom-step/s
97.6% CPU use with 8 MPI tasks x 1 OpenMP threads

MPI task timing breakdown:
Section |  min time  |  avg time  |  max time  |%varavg| %total
---------------------------------------------------------------
Pair    | 0.005274   | 0.006702   | 0.008062   |   1.0 |  8.59
Neigh   | 0          | 0          | 0          |   0.0 |  0.00
Comm    | 0.03345    | 0.035018   | 0.036906   |   0.6 | 44.88
Output  | 0.000656   | 0.00080525 | 0.00094    |   0.0 |  1.03
Modify  | 0.011204   | 0.011877   | 0.012681   |   0.4 | 15.22
Other   |            | 0.02363    |            |       | 30.28

Nlocal:             64 ave          68 max          58 min
Histogram: 1 0 0 1 0 0 2 2 0 2
Nghost:             52 ave          58 max          39 min
Histogram: 1 0 0 1 1 0 0 0 1 4
Neighs:         158.25 ave         183 max         135 min
Histogram: 2 0 0 1 1 0 2 0 1 1

Total # of neighbors = 1266
Ave neighs/atom = 2.4726562
Neighbor list builds = 0
Dangerous builds = 0
print           "${i} ${st} ${phi} ${pr} ${KEtot}" append ${logfile}
print           "${i} ${st} ${phi} ${pr} ${KEtot}" append compress_rate/compress_rate_0.0001/log_compress_rate_0.0001.txt
41 460000 0.589203908075756 2.07982354923712e-06 1.52175647720062e-06
print           "${i} ${st} ${phi} ${pr} ${KEtot}" append ${pressfile}
print           "${i} ${st} ${phi} ${pr} ${KEtot}" append compress_rate/compress_rate_0.0001/press_phi_compress_rate_0.0001.txt
41 460000 0.589203908075756 2.07982354923712e-06 1.52175647720062e-06
next            i
jump            SELF loop_compress
variable        i loop ${ncycle}
variable        i loop 150
# @before(压缩之前的我不关注)
change_box      all x scale ${scale} y scale ${scale} remap units box
change_box      all x scale 0.998 y scale ${scale} remap units box
change_box      all x scale 0.998 y scale 0.998 remap units box
Changing box ...
  orthogonal box = (1.3911662 1.3593845 -0.1) to (33.109365 33.141146 0.1)
  orthogonal box = (1.3911662 1.3911662 -0.1) to (33.109365 33.109365 0.1)
velocity        all set 0.0 0.0 0.0       # 压缩后清零速度，避免把上一轮残余动量带进来
# @after
run             ${compress_loop}        # 每轮给足够松弛时间
run             10000        
Generated 0 of 1 mixed pair_coeff terms from geometric mixing rule
Per MPI rank memory allocation (min/avg/max) = 11.24 | 11.24 | 11.24 Mbytes
   Step        Atoms          Lx             Ly           v_phi          Press          KinEng        c_ke_rot   
    460000         512   31.718198      31.718198      0.59156781     4.3016983      0              0            
    465000         512   31.718198      31.718198      0.59156781     0.00022913818  2.6707611e-06  0            
    470000         512   31.718198      31.718198      0.59156781     9.4230256e-07  2.4810523e-09  0            
Loop time of 0.0860111 on 8 procs for 10000 steps with 512 atoms

Performance: 502260.609 tau/day, 116264.030 timesteps/s, 59.527 Matom-step/s
109.0% CPU use with 8 MPI tasks x 1 OpenMP threads

MPI task timing breakdown:
Section |  min time  |  avg time  |  max time  |%varavg| %total
---------------------------------------------------------------
Pair    | 0.005513   | 0.0069495  | 0.008158   |   1.0 |  8.08
Neigh   | 0          | 0          | 0          |   0.0 |  0.00
Comm    | 0.036168   | 0.037859   | 0.03967    |   0.6 | 44.02
Output  | 0.000663   | 0.00084113 | 0.000979   |   0.0 |  0.98
Modify  | 0.011319   | 0.0123     | 0.012948   |   0.4 | 14.30
Other   |            | 0.02806    |            |       | 32.63

Nlocal:             64 ave          68 max          58 min
Histogram: 1 0 0 1 0 0 2 2 0 2
Nghost:          52.25 ave          59 max          39 min
Histogram: 1 0 0 1 1 0 0 0 1 4
Neighs:          158.5 ave         182 max         135 min
Histogram: 2 0 0 0 2 0 2 0 1 1

Total # of neighbors = 1268
Ave neighs/atom = 2.4765625
Neighbor list builds = 0
Dangerous builds = 0
print           "${i} ${st} ${phi} ${pr} ${KEtot}" append ${logfile}
print           "${i} ${st} ${phi} ${pr} ${KEtot}" append compress_rate/compress_rate_0.0001/log_compress_rate_0.0001.txt
42 470000 0.591567813056731 9.42302563588794e-07 1.27029878451922e-06
print           "${i} ${st} ${phi} ${pr} ${KEtot}" append ${pressfile}
print           "${i} ${st} ${phi} ${pr} ${KEtot}" append compress_rate/compress_rate_0.0001/press_phi_compress_rate_0.0001.txt
42 470000 0.591567813056731 9.42302563588794e-07 1.27029878451922e-06
next            i
jump            SELF loop_compress
variable        i loop ${ncycle}
variable        i loop 150
# @before(压缩之前的我不关注)
change_box      all x scale ${scale} y scale ${scale} remap units box
change_box      all x scale 0.998 y scale ${scale} remap units box
change_box      all x scale 0.998 y scale 0.998 remap units box
Changing box ...
  orthogonal box = (1.4228844 1.3911662 -0.1) to (33.077646 33.109365 0.1)
  orthogonal box = (1.4228844 1.4228844 -0.1) to (33.077646 33.077646 0.1)
velocity        all set 0.0 0.0 0.0       # 压缩后清零速度，避免把上一轮残余动量带进来
# @after
run             ${compress_loop}        # 每轮给足够松弛时间
run             10000        
Generated 0 of 1 mixed pair_coeff terms from geometric mixing rule
Per MPI rank memory allocation (min/avg/max) = 11.24 | 11.24 | 11.24 Mbytes
   Step        Atoms          Lx             Ly           v_phi          Press          KinEng        c_ke_rot   
    470000         512   31.654762      31.654762      0.5939412      4.3899938      0              0            
    475000         512   31.654762      31.654762      0.5939412      0.0002429677   3.3087887e-06  0            
    480000         512   31.654762      31.654762      0.5939412      2.4146675e-06  2.9748316e-09  0            
Loop time of 0.0914651 on 8 procs for 10000 steps with 512 atoms

Performance: 472311.168 tau/day, 109331.289 timesteps/s, 55.978 Matom-step/s
102.5% CPU use with 8 MPI tasks x 1 OpenMP threads

MPI task timing breakdown:
Section |  min time  |  avg time  |  max time  |%varavg| %total
---------------------------------------------------------------
Pair    | 0.00574    | 0.0075032  | 0.009816   |   1.5 |  8.20
Neigh   | 0          | 0          | 0          |   0.0 |  0.00
Comm    | 0.036065   | 0.038992   | 0.041051   |   1.0 | 42.63
Output  | 0.000752   | 0.00093025 | 0.001085   |   0.0 |  1.02
Modify  | 0.011578   | 0.012154   | 0.01304    |   0.4 | 13.29
Other   |            | 0.03189    |            |       | 34.86

Nlocal:             64 ave          68 max          58 min
Histogram: 1 0 0 1 0 0 2 2 0 2
Nghost:         52.375 ave          60 max          39 min
Histogram: 1 0 1 1 0 0 0 0 3 2
Neighs:        159.125 ave         183 max         135 min
Histogram: 2 0 0 1 1 0 2 0 1 1

Total # of neighbors = 1273
Ave neighs/atom = 2.4863281
Neighbor list builds = 0
Dangerous builds = 0
print           "${i} ${st} ${phi} ${pr} ${KEtot}" append ${logfile}
print           "${i} ${st} ${phi} ${pr} ${KEtot}" append compress_rate/compress_rate_0.0001/log_compress_rate_0.0001.txt
43 480000 0.593941202100324 2.41466750973007e-06 1.52311380194938e-06
print           "${i} ${st} ${phi} ${pr} ${KEtot}" append ${pressfile}
print           "${i} ${st} ${phi} ${pr} ${KEtot}" append compress_rate/compress_rate_0.0001/press_phi_compress_rate_0.0001.txt
43 480000 0.593941202100324 2.41466750973007e-06 1.52311380194938e-06
next            i
jump            SELF loop_compress
variable        i loop ${ncycle}
variable        i loop 150
# @before(压缩之前的我不关注)
change_box      all x scale ${scale} y scale ${scale} remap units box
change_box      all x scale 0.998 y scale ${scale} remap units box
change_box      all x scale 0.998 y scale 0.998 remap units box
Changing box ...
  orthogonal box = (1.4545392 1.4228844 -0.1) to (33.045992 33.077646 0.1)
  orthogonal box = (1.4545392 1.4545392 -0.1) to (33.045992 33.045992 0.1)
velocity        all set 0.0 0.0 0.0       # 压缩后清零速度，避免把上一轮残余动量带进来
# @after
run             ${compress_loop}        # 每轮给足够松弛时间
run             10000        
Generated 0 of 1 mixed pair_coeff terms from geometric mixing rule
Per MPI rank memory allocation (min/avg/max) = 11.24 | 11.24 | 11.24 Mbytes
   Step        Atoms          Lx             Ly           v_phi          Press          KinEng        c_ke_rot   
    480000         512   31.591452      31.591452      0.59632411     4.8051162      0              0            
    485000         512   31.591452      31.591452      0.59632411     0.00037103851  3.5747797e-06  0            
    490000         512   31.591452      31.591452      0.59632411     2.5063452e-06  3.2668396e-09  0            
Loop time of 0.103132 on 8 procs for 10000 steps with 512 atoms

Performance: 418881.673 tau/day, 96963.350 timesteps/s, 49.645 Matom-step/s
87.1% CPU use with 8 MPI tasks x 1 OpenMP threads

MPI task timing breakdown:
Section |  min time  |  avg time  |  max time  |%varavg| %total
---------------------------------------------------------------
Pair    | 0.007123   | 0.0083199  | 0.011144   |   1.3 |  8.07
Neigh   | 0          | 0          | 0          |   0.0 |  0.00
Comm    | 0.042409   | 0.043539   | 0.045253   |   0.4 | 42.22
Output  | 0.000742   | 0.00088013 | 0.001117   |   0.0 |  0.85
Modify  | 0.011852   | 0.012923   | 0.013569   |   0.5 | 12.53
Other   |            | 0.03747    |            |       | 36.33

Nlocal:             64 ave          68 max          58 min
Histogram: 1 0 0 1 0 0 2 2 0 2
Nghost:           52.5 ave          60 max          39 min
Histogram: 1 0 1 1 0 0 0 0 2 3
Neighs:         160.25 ave         183 max         137 min
Histogram: 2 0 0 1 1 0 1 1 1 1

Total # of neighbors = 1282
Ave neighs/atom = 2.5039062
Neighbor list builds = 0
Dangerous builds = 0
print           "${i} ${st} ${phi} ${pr} ${KEtot}" append ${logfile}
print           "${i} ${st} ${phi} ${pr} ${KEtot}" append compress_rate/compress_rate_0.0001/log_compress_rate_0.0001.txt
44 490000 0.596324113256899 2.50634519375785e-06 1.67262187862883e-06
print           "${i} ${st} ${phi} ${pr} ${KEtot}" append ${pressfile}
print           "${i} ${st} ${phi} ${pr} ${KEtot}" append compress_rate/compress_rate_0.0001/press_phi_compress_rate_0.0001.txt
44 490000 0.596324113256899 2.50634519375785e-06 1.67262187862883e-06
next            i
jump            SELF loop_compress
variable        i loop ${ncycle}
variable        i loop 150
# @before(压缩之前的我不关注)
change_box      all x scale ${scale} y scale ${scale} remap units box
change_box      all x scale 0.998 y scale ${scale} remap units box
change_box      all x scale 0.998 y scale 0.998 remap units box
Changing box ...
  orthogonal box = (1.4861306 1.4545392 -0.1) to (33.0144 33.045992 0.1)
  orthogonal box = (1.4861306 1.4861306 -0.1) to (33.0144 33.0144 0.1)
velocity        all set 0.0 0.0 0.0       # 压缩后清零速度，避免把上一轮残余动量带进来
# @after
run             ${compress_loop}        # 每轮给足够松弛时间
run             10000        
Generated 0 of 1 mixed pair_coeff terms from geometric mixing rule
Per MPI rank memory allocation (min/avg/max) = 11.24 | 11.24 | 11.24 Mbytes
   Step        Atoms          Lx             Ly           v_phi          Press          KinEng        c_ke_rot   
    490000         512   31.52827       31.52827       0.59871658     5.0865214      0              0            
    495000         512   31.52827       31.52827       0.59871658     0.00070520843  3.7648048e-06  0            
    500000         512   31.52827       31.52827       0.59871658     2.5164645e-06  3.3907343e-09  0            
Loop time of 0.0958145 on 8 procs for 10000 steps with 512 atoms

Performance: 450871.215 tau/day, 104368.337 timesteps/s, 53.437 Matom-step/s
114.2% CPU use with 8 MPI tasks x 1 OpenMP threads

MPI task timing breakdown:
Section |  min time  |  avg time  |  max time  |%varavg| %total
---------------------------------------------------------------
Pair    | 0.005923   | 0.007906   | 0.011351   |   1.9 |  8.25
Neigh   | 0          | 0          | 0          |   0.0 |  0.00
Comm    | 0.037656   | 0.040824   | 0.043835   |   1.2 | 42.61
Output  | 0.000576   | 0.0007245  | 0.000915   |   0.0 |  0.76
Modify  | 0.011595   | 0.012596   | 0.013073   |   0.4 | 13.15
Other   |            | 0.03376    |            |       | 35.24

Nlocal:             64 ave          68 max          58 min
Histogram: 1 0 0 1 0 0 2 2 0 2
Nghost:         52.625 ave          60 max          39 min
Histogram: 1 0 0 2 0 0 0 0 2 3
Neighs:         161.25 ave         186 max         137 min
Histogram: 2 0 0 1 1 1 0 1 1 1

Total # of neighbors = 1290
Ave neighs/atom = 2.5195312
Neighbor list builds = 0
Dangerous builds = 0
print           "${i} ${st} ${phi} ${pr} ${KEtot}" append ${logfile}
print           "${i} ${st} ${phi} ${pr} ${KEtot}" append compress_rate/compress_rate_0.0001/log_compress_rate_0.0001.txt
45 500000 0.598716584729478 2.51646451305721e-06 1.73605594800366e-06
print           "${i} ${st} ${phi} ${pr} ${KEtot}" append ${pressfile}
print           "${i} ${st} ${phi} ${pr} ${KEtot}" append compress_rate/compress_rate_0.0001/press_phi_compress_rate_0.0001.txt
45 500000 0.598716584729478 2.51646451305721e-06 1.73605594800366e-06
next            i
jump            SELF loop_compress
variable        i loop ${ncycle}
variable        i loop 150
# @before(压缩之前的我不关注)
change_box      all x scale ${scale} y scale ${scale} remap units box
change_box      all x scale 0.998 y scale ${scale} remap units box
change_box      all x scale 0.998 y scale 0.998 remap units box
Changing box ...
  orthogonal box = (1.5176589 1.4861306 -0.1) to (32.982872 33.0144 0.1)
  orthogonal box = (1.5176589 1.5176589 -0.1) to (32.982872 32.982872 0.1)
velocity        all set 0.0 0.0 0.0       # 压缩后清零速度，避免把上一轮残余动量带进来
# @after
run             ${compress_loop}        # 每轮给足够松弛时间
run             10000        
Generated 0 of 1 mixed pair_coeff terms from geometric mixing rule
Per MPI rank memory allocation (min/avg/max) = 11.24 | 11.24 | 11.24 Mbytes
   Step        Atoms          Lx             Ly           v_phi          Press          KinEng        c_ke_rot   
    500000         512   31.465213      31.465213      0.60111865     5.3994319      0              0            
    505000         512   31.465213      31.465213      0.60111865     0.00066537533  4.41146e-06    0            
    510000         512   31.465213      31.465213      0.60111865     2.897692e-06   4.0280879e-09  0            
Loop time of 0.092728 on 8 procs for 10000 steps with 512 atoms

Performance: 465878.699 tau/day, 107842.291 timesteps/s, 55.215 Matom-step/s
101.1% CPU use with 8 MPI tasks x 1 OpenMP threads

MPI task timing breakdown:
Section |  min time  |  avg time  |  max time  |%varavg| %total
---------------------------------------------------------------
Pair    | 0.005483   | 0.0078229  | 0.009915   |   1.3 |  8.44
Neigh   | 0          | 0          | 0          |   0.0 |  0.00
Comm    | 0.037135   | 0.039328   | 0.041272   |   0.6 | 42.41
Output  | 0.000648   | 0.00083538 | 0.001009   |   0.0 |  0.90
Modify  | 0.011322   | 0.012405   | 0.013297   |   0.6 | 13.38
Other   |            | 0.03234    |            |       | 34.87

Nlocal:             64 ave          68 max          58 min
Histogram: 1 0 0 1 0 0 2 2 0 2
Nghost:             53 ave          60 max          41 min
Histogram: 1 0 1 1 0 0 0 1 3 1
Neighs:         161.75 ave         187 max         137 min
Histogram: 2 0 0 0 2 1 0 1 1 1

Total # of neighbors = 1294
Ave neighs/atom = 2.5273438
Neighbor list builds = 0
Dangerous builds = 0
print           "${i} ${st} ${phi} ${pr} ${KEtot}" append ${logfile}
print           "${i} ${st} ${phi} ${pr} ${KEtot}" append compress_rate/compress_rate_0.0001/log_compress_rate_0.0001.txt
46 510000 0.601118654874356 2.89769197915674e-06 2.06238098130172e-06
print           "${i} ${st} ${phi} ${pr} ${KEtot}" append ${pressfile}
print           "${i} ${st} ${phi} ${pr} ${KEtot}" append compress_rate/compress_rate_0.0001/press_phi_compress_rate_0.0001.txt
46 510000 0.601118654874356 2.89769197915674e-06 2.06238098130172e-06
next            i
jump            SELF loop_compress
variable        i loop ${ncycle}
variable        i loop 150
# @before(压缩之前的我不关注)
change_box      all x scale ${scale} y scale ${scale} remap units box
change_box      all x scale 0.998 y scale ${scale} remap units box
change_box      all x scale 0.998 y scale 0.998 remap units box
Changing box ...
  orthogonal box = (1.5491241 1.5176589 -0.1) to (32.951407 32.982872 0.1)
  orthogonal box = (1.5491241 1.5491241 -0.1) to (32.951407 32.951407 0.1)
velocity        all set 0.0 0.0 0.0       # 压缩后清零速度，避免把上一轮残余动量带进来
# @after
run             ${compress_loop}        # 每轮给足够松弛时间
run             10000        
Generated 0 of 1 mixed pair_coeff terms from geometric mixing rule
Per MPI rank memory allocation (min/avg/max) = 11.24 | 11.24 | 11.24 Mbytes
   Step        Atoms          Lx             Ly           v_phi          Press          KinEng        c_ke_rot   
    510000         512   31.402283      31.402283      0.60353036     5.0552828      0              0            
    515000         512   31.402283      31.402283      0.60353036     0.00089226797  3.481032e-06   0            
    520000         512   31.402283      31.402283      0.60353036     3.2144501e-06  3.0676616e-09  0            
Loop time of 0.0865088 on 8 procs for 10000 steps with 512 atoms

Performance: 499371.451 tau/day, 115595.243 timesteps/s, 59.185 Matom-step/s
88.1% CPU use with 8 MPI tasks x 1 OpenMP threads

MPI task timing breakdown:
Section |  min time  |  avg time  |  max time  |%varavg| %total
---------------------------------------------------------------
Pair    | 0.005836   | 0.0071936  | 0.009687   |   1.3 |  8.32
Neigh   | 0          | 0          | 0          |   0.0 |  0.00
Comm    | 0.035226   | 0.038098   | 0.04036    |   0.8 | 44.04
Output  | 0.001145   | 0.0013035  | 0.001469   |   0.3 |  1.51
Modify  | 0.011335   | 0.01203    | 0.0132     |   0.5 | 13.91
Other   |            | 0.02788    |            |       | 32.23

Nlocal:             64 ave          68 max          58 min
Histogram: 1 0 0 1 0 0 2 2 0 2
Nghost:             53 ave          60 max          41 min
Histogram: 1 0 1 1 0 0 0 1 3 1
Neighs:        162.625 ave         189 max         137 min
Histogram: 2 0 0 0 2 1 1 0 1 1

Total # of neighbors = 1301
Ave neighs/atom = 2.5410156
Neighbor list builds = 0
Dangerous builds = 0
print           "${i} ${st} ${phi} ${pr} ${KEtot}" append ${logfile}
print           "${i} ${st} ${phi} ${pr} ${KEtot}" append compress_rate/compress_rate_0.0001/log_compress_rate_0.0001.txt
47 520000 0.603530362201714 3.21445005921376e-06 1.57064272436634e-06
print           "${i} ${st} ${phi} ${pr} ${KEtot}" append ${pressfile}
print           "${i} ${st} ${phi} ${pr} ${KEtot}" append compress_rate/compress_rate_0.0001/press_phi_compress_rate_0.0001.txt
47 520000 0.603530362201714 3.21445005921376e-06 1.57064272436634e-06
next            i
jump            SELF loop_compress
variable        i loop ${ncycle}
variable        i loop 150
# @before(压缩之前的我不关注)
change_box      all x scale ${scale} y scale ${scale} remap units box
change_box      all x scale 0.998 y scale ${scale} remap units box
change_box      all x scale 0.998 y scale 0.998 remap units box
Changing box ...
  orthogonal box = (1.5805264 1.5491241 -0.1) to (32.920004 32.951407 0.1)
  orthogonal box = (1.5805264 1.5805264 -0.1) to (32.920004 32.920004 0.1)
velocity        all set 0.0 0.0 0.0       # 压缩后清零速度，避免把上一轮残余动量带进来
# @after
run             ${compress_loop}        # 每轮给足够松弛时间
run             10000        
Generated 0 of 1 mixed pair_coeff terms from geometric mixing rule
Per MPI rank memory allocation (min/avg/max) = 11.24 | 11.24 | 11.24 Mbytes
   Step        Atoms          Lx             Ly           v_phi          Press          KinEng        c_ke_rot   
    520000         512   31.339478      31.339478      0.60595175     5.4168158      0              0            
    525000         512   31.339478      31.339478      0.60595175     0.00049341578  3.9582948e-06  0            
    530000         512   31.339478      31.339478      0.60595175     3.3262813e-06  3.5836128e-09  0            
Loop time of 0.087137 on 8 procs for 10000 steps with 512 atoms

Performance: 495771.027 tau/day, 114761.812 timesteps/s, 58.758 Matom-step/s
107.6% CPU use with 8 MPI tasks x 1 OpenMP threads

MPI task timing breakdown:
Section |  min time  |  avg time  |  max time  |%varavg| %total
---------------------------------------------------------------
Pair    | 0.005531   | 0.0077406  | 0.010117   |   1.7 |  8.88
Neigh   | 0          | 0          | 0          |   0.0 |  0.00
Comm    | 0.036696   | 0.037755   | 0.039728   |   0.6 | 43.33
Output  | 0.000562   | 0.00077225 | 0.000998   |   0.0 |  0.89
Modify  | 0.01126    | 0.011901   | 0.012596   |   0.4 | 13.66
Other   |            | 0.02897    |            |       | 33.25

Nlocal:             64 ave          68 max          58 min
Histogram: 1 0 0 1 0 0 2 2 0 2
Nghost:         52.875 ave          60 max          41 min
Histogram: 1 0 1 1 0 0 0 2 2 1
Neighs:        163.625 ave         189 max         139 min
Histogram: 2 0 0 1 1 0 1 1 1 1

Total # of neighbors = 1309
Ave neighs/atom = 2.5566406
Neighbor list builds = 0
Dangerous builds = 0
print           "${i} ${st} ${phi} ${pr} ${KEtot}" append ${logfile}
print           "${i} ${st} ${phi} ${pr} ${KEtot}" append compress_rate/compress_rate_0.0001/log_compress_rate_0.0001.txt
48 530000 0.605951745376237 3.32628134365375e-06 1.8348097446473e-06
print           "${i} ${st} ${phi} ${pr} ${KEtot}" append ${pressfile}
print           "${i} ${st} ${phi} ${pr} ${KEtot}" append compress_rate/compress_rate_0.0001/press_phi_compress_rate_0.0001.txt
48 530000 0.605951745376237 3.32628134365375e-06 1.8348097446473e-06
next            i
jump            SELF loop_compress
variable        i loop ${ncycle}
variable        i loop 150
# @before(压缩之前的我不关注)
change_box      all x scale ${scale} y scale ${scale} remap units box
change_box      all x scale 0.998 y scale ${scale} remap units box
change_box      all x scale 0.998 y scale 0.998 remap units box
Changing box ...
  orthogonal box = (1.6118659 1.5805264 -0.1) to (32.888665 32.920004 0.1)
  orthogonal box = (1.6118659 1.6118659 -0.1) to (32.888665 32.888665 0.1)
velocity        all set 0.0 0.0 0.0       # 压缩后清零速度，避免把上一轮残余动量带进来
# @after
run             ${compress_loop}        # 每轮给足够松弛时间
run             10000        
Generated 0 of 1 mixed pair_coeff terms from geometric mixing rule
Per MPI rank memory allocation (min/avg/max) = 11.24 | 11.24 | 11.24 Mbytes
   Step        Atoms          Lx             Ly           v_phi          Press          KinEng        c_ke_rot   
    530000         512   31.276799      31.276799      0.60838284     5.5425405      0              0            
    535000         512   31.276799      31.276799      0.60838284     0.00025099718  4.115568e-06   0            
    540000         512   31.276799      31.276799      0.60838284     3.2292423e-06  3.7041416e-09  0            
Loop time of 0.101016 on 8 procs for 10000 steps with 512 atoms

Performance: 427655.025 tau/day, 98994.219 timesteps/s, 50.685 Matom-step/s
108.3% CPU use with 8 MPI tasks x 1 OpenMP threads

MPI task timing breakdown:
Section |  min time  |  avg time  |  max time  |%varavg| %total
---------------------------------------------------------------
Pair    | 0.006352   | 0.0080566  | 0.011786   |   1.7 |  7.98
Neigh   | 0          | 0          | 0          |   0.0 |  0.00
Comm    | 0.037678   | 0.041349   | 0.04574    |   1.2 | 40.93
Output  | 0.001111   | 0.0013346  | 0.001569   |   0.4 |  1.32
Modify  | 0.01159    | 0.012474   | 0.013517   |   0.6 | 12.35
Other   |            | 0.0378     |            |       | 37.42

Nlocal:             64 ave          68 max          58 min
Histogram: 1 0 0 1 0 0 2 2 0 2
Nghost:         52.875 ave          60 max          41 min
Histogram: 1 0 1 1 0 0 0 2 2 1
Neighs:          164.5 ave         191 max         138 min
Histogram: 2 0 0 1 1 1 0 2 0 1

Total # of neighbors = 1316
Ave neighs/atom = 2.5703125
Neighbor list builds = 0
Dangerous builds = 0
print           "${i} ${st} ${phi} ${pr} ${KEtot}" append ${logfile}
print           "${i} ${st} ${phi} ${pr} ${KEtot}" append compress_rate/compress_rate_0.0001/log_compress_rate_0.0001.txt
49 540000 0.608382843217735 3.22924226001586e-06 1.89652047469063e-06
print           "${i} ${st} ${phi} ${pr} ${KEtot}" append ${pressfile}
print           "${i} ${st} ${phi} ${pr} ${KEtot}" append compress_rate/compress_rate_0.0001/press_phi_compress_rate_0.0001.txt
49 540000 0.608382843217735 3.22924226001586e-06 1.89652047469063e-06
next            i
jump            SELF loop_compress
variable        i loop ${ncycle}
variable        i loop 150
# @before(压缩之前的我不关注)
change_box      all x scale ${scale} y scale ${scale} remap units box
change_box      all x scale 0.998 y scale ${scale} remap units box
change_box      all x scale 0.998 y scale 0.998 remap units box
Changing box ...
  orthogonal box = (1.6431427 1.6118659 -0.1) to (32.857388 32.888665 0.1)
  orthogonal box = (1.6431427 1.6431427 -0.1) to (32.857388 32.857388 0.1)
velocity        all set 0.0 0.0 0.0       # 压缩后清零速度，避免把上一轮残余动量带进来
# @after
run             ${compress_loop}        # 每轮给足够松弛时间
run             10000        
Generated 0 of 1 mixed pair_coeff terms from geometric mixing rule
Per MPI rank memory allocation (min/avg/max) = 11.24 | 11.24 | 11.24 Mbytes
   Step        Atoms          Lx             Ly           v_phi          Press          KinEng        c_ke_rot   
    540000         512   31.214245      31.214245      0.61082369     5.2650487      0              0            
    545000         512   31.214245      31.214245      0.61082369     0.00089388782  3.823848e-06   0            
    550000         512   31.214245      31.214245      0.61082369     3.7716323e-06  3.3997647e-09  0            
Loop time of 0.1032 on 8 procs for 10000 steps with 512 atoms

Performance: 418604.144 tau/day, 96899.107 timesteps/s, 49.612 Matom-step/s
90.8% CPU use with 8 MPI tasks x 1 OpenMP threads

MPI task timing breakdown:
Section |  min time  |  avg time  |  max time  |%varavg| %total
---------------------------------------------------------------
Pair    | 0.005848   | 0.0086092  | 0.012302   |   2.0 |  8.34
Neigh   | 0          | 0          | 0          |   0.0 |  0.00
Comm    | 0.040889   | 0.042709   | 0.04561    |   0.8 | 41.38
Output  | 0.00083    | 0.0010321  | 0.001198   |   0.4 |  1.00
Modify  | 0.012362   | 0.01293    | 0.013498   |   0.4 | 12.53
Other   |            | 0.03792    |            |       | 36.74

Nlocal:             64 ave          68 max          58 min
Histogram: 1 0 0 1 0 0 3 1 0 2
Nghost:         52.875 ave          60 max          41 min
Histogram: 1 0 1 1 0 0 0 2 1 2
Neighs:            166 ave         192 max         142 min
Histogram: 2 0 0 0 2 1 1 1 0 1

Total # of neighbors = 1328
Ave neighs/atom = 2.59375
Neighbor list builds = 0
Dangerous builds = 0
print           "${i} ${st} ${phi} ${pr} ${KEtot}" append ${logfile}
print           "${i} ${st} ${phi} ${pr} ${KEtot}" append compress_rate/compress_rate_0.0001/log_compress_rate_0.0001.txt
50 550000 0.610823694701763 3.77163225113566e-06 1.74067951630509e-06
print           "${i} ${st} ${phi} ${pr} ${KEtot}" append ${pressfile}
print           "${i} ${st} ${phi} ${pr} ${KEtot}" append compress_rate/compress_rate_0.0001/press_phi_compress_rate_0.0001.txt
50 550000 0.610823694701763 3.77163225113566e-06 1.74067951630509e-06
next            i
jump            SELF loop_compress
variable        i loop ${ncycle}
variable        i loop 150
# @before(压缩之前的我不关注)
change_box      all x scale ${scale} y scale ${scale} remap units box
change_box      all x scale 0.998 y scale ${scale} remap units box
change_box      all x scale 0.998 y scale 0.998 remap units box
Changing box ...
  orthogonal box = (1.6743569 1.6431427 -0.1) to (32.826174 32.857388 0.1)
  orthogonal box = (1.6743569 1.6743569 -0.1) to (32.826174 32.826174 0.1)
velocity        all set 0.0 0.0 0.0       # 压缩后清零速度，避免把上一轮残余动量带进来
# @after
run             ${compress_loop}        # 每轮给足够松弛时间
run             10000        
Generated 0 of 1 mixed pair_coeff terms from geometric mixing rule
Per MPI rank memory allocation (min/avg/max) = 11.24 | 11.24 | 11.24 Mbytes
   Step        Atoms          Lx             Ly           v_phi          Press          KinEng        c_ke_rot   
    550000         512   31.151817      31.151817      0.61327434     5.8904969      0              0            
    555000         512   31.151817      31.151817      0.61327434     0.00034825413  4.2170667e-06  0            
    560000         512   31.151817      31.151817      0.61327434     2.5599478e-06  3.8254869e-09  0            
Loop time of 0.0889107 on 8 procs for 10000 steps with 512 atoms

Performance: 485880.504 tau/day, 112472.339 timesteps/s, 57.586 Matom-step/s
105.4% CPU use with 8 MPI tasks x 1 OpenMP threads

MPI task timing breakdown:
Section |  min time  |  avg time  |  max time  |%varavg| %total
---------------------------------------------------------------
Pair    | 0.005746   | 0.0075295  | 0.010033   |   1.5 |  8.47
Neigh   | 0          | 0          | 0          |   0.0 |  0.00
Comm    | 0.036233   | 0.038058   | 0.041015   |   0.8 | 42.80
Output  | 0.001341   | 0.0015312  | 0.00171    |   0.3 |  1.72
Modify  | 0.011277   | 0.012184   | 0.012994   |   0.5 | 13.70
Other   |            | 0.02961    |            |       | 33.30

Nlocal:             64 ave          68 max          58 min
Histogram: 1 0 0 1 0 0 3 1 0 2
Nghost:           53.5 ave          60 max          41 min
Histogram: 1 0 0 1 1 0 0 1 1 3
Neighs:            166 ave         191 max         141 min
Histogram: 2 0 0 0 2 0 1 1 1 1

Total # of neighbors = 1328
Ave neighs/atom = 2.59375
Neighbor list builds = 0
Dangerous builds = 0
print           "${i} ${st} ${phi} ${pr} ${KEtot}" append ${logfile}
print           "${i} ${st} ${phi} ${pr} ${KEtot}" append compress_rate/compress_rate_0.0001/log_compress_rate_0.0001.txt
51 560000 0.613274338960248 2.55994783077599e-06 1.95864928772039e-06
print           "${i} ${st} ${phi} ${pr} ${KEtot}" append ${pressfile}
print           "${i} ${st} ${phi} ${pr} ${KEtot}" append compress_rate/compress_rate_0.0001/press_phi_compress_rate_0.0001.txt
51 560000 0.613274338960248 2.55994783077599e-06 1.95864928772039e-06
next            i
jump            SELF loop_compress
variable        i loop ${ncycle}
variable        i loop 150
# @before(压缩之前的我不关注)
change_box      all x scale ${scale} y scale ${scale} remap units box
change_box      all x scale 0.998 y scale ${scale} remap units box
change_box      all x scale 0.998 y scale 0.998 remap units box
Changing box ...
  orthogonal box = (1.7055087 1.6743569 -0.1) to (32.795022 32.826174 0.1)
  orthogonal box = (1.7055087 1.7055087 -0.1) to (32.795022 32.795022 0.1)
velocity        all set 0.0 0.0 0.0       # 压缩后清零速度，避免把上一轮残余动量带进来
# @after
run             ${compress_loop}        # 每轮给足够松弛时间
run             10000        
Generated 0 of 1 mixed pair_coeff terms from geometric mixing rule
Per MPI rank memory allocation (min/avg/max) = 11.24 | 11.24 | 11.24 Mbytes
   Step        Atoms          Lx             Ly           v_phi          Press          KinEng        c_ke_rot   
    560000         512   31.089513      31.089513      0.61573482     5.276315       0              0            
    565000         512   31.089513      31.089513      0.61573482     0.0012294147   3.013394e-06   0            
    570000         512   31.089513      31.089513      0.61573482     3.093167e-06   2.6469061e-09  0            
Loop time of 0.0855501 on 8 procs for 10000 steps with 512 atoms

Performance: 504967.117 tau/day, 116890.536 timesteps/s, 59.848 Matom-step/s
109.6% CPU use with 8 MPI tasks x 1 OpenMP threads

MPI task timing breakdown:
Section |  min time  |  avg time  |  max time  |%varavg| %total
---------------------------------------------------------------
Pair    | 0.005471   | 0.0078784  | 0.011424   |   2.0 |  9.21
Neigh   | 0          | 0          | 0          |   0.0 |  0.00
Comm    | 0.035357   | 0.037013   | 0.039081   |   0.7 | 43.26
Output  | 0.000666   | 0.00099813 | 0.001348   |   0.0 |  1.17
Modify  | 0.011148   | 0.011964   | 0.012922   |   0.5 | 13.98
Other   |            | 0.0277     |            |       | 32.37

Nlocal:             64 ave          68 max          58 min
Histogram: 1 0 0 1 0 0 3 1 0 2
Nghost:          53.75 ave          60 max          42 min
Histogram: 1 0 1 0 1 0 0 1 1 3
Neighs:          166.5 ave         191 max         142 min
Histogram: 2 0 0 0 2 1 0 2 0 1

Total # of neighbors = 1332
Ave neighs/atom = 2.6015625
Neighbor list builds = 0
Dangerous builds = 0
print           "${i} ${st} ${phi} ${pr} ${KEtot}" append ${logfile}
print           "${i} ${st} ${phi} ${pr} ${KEtot}" append compress_rate/compress_rate_0.0001/log_compress_rate_0.0001.txt
52 570000 0.615734815282116 3.09316702810919e-06 1.35521592913303e-06
print           "${i} ${st} ${phi} ${pr} ${KEtot}" append ${pressfile}
print           "${i} ${st} ${phi} ${pr} ${KEtot}" append compress_rate/compress_rate_0.0001/press_phi_compress_rate_0.0001.txt
52 570000 0.615734815282116 3.09316702810919e-06 1.35521592913303e-06
next            i
jump            SELF loop_compress
variable        i loop ${ncycle}
variable        i loop 150
# @before(压缩之前的我不关注)
change_box      all x scale ${scale} y scale ${scale} remap units box
change_box      all x scale 0.998 y scale ${scale} remap units box
change_box      all x scale 0.998 y scale 0.998 remap units box
Changing box ...
  orthogonal box = (1.7365982 1.7055087 -0.1) to (32.763933 32.795022 0.1)
  orthogonal box = (1.7365982 1.7365982 -0.1) to (32.763933 32.763933 0.1)
velocity        all set 0.0 0.0 0.0       # 压缩后清零速度，避免把上一轮残余动量带进来
# @after
run             ${compress_loop}        # 每轮给足够松弛时间
run             10000        
Generated 0 of 1 mixed pair_coeff terms from geometric mixing rule
Per MPI rank memory allocation (min/avg/max) = 11.24 | 11.24 | 11.24 Mbytes
   Step        Atoms          Lx             Ly           v_phi          Press          KinEng        c_ke_rot   
    570000         512   31.027334      31.027334      0.61820516     6.6426191      0              0            
    575000         512   31.027334      31.027334      0.61820516     0.00098630509  5.6161421e-06  0            
    580000         512   31.027334      31.027334      0.61820516     4.0870349e-06  5.0603768e-09  0            
Loop time of 0.0944174 on 8 procs for 10000 steps with 512 atoms

Performance: 457542.905 tau/day, 105912.709 timesteps/s, 54.227 Matom-step/s
97.2% CPU use with 8 MPI tasks x 1 OpenMP threads

MPI task timing breakdown:
Section |  min time  |  avg time  |  max time  |%varavg| %total
---------------------------------------------------------------
Pair    | 0.00639    | 0.0084719  | 0.011558   |   1.7 |  8.97
Neigh   | 0          | 0          | 0          |   0.0 |  0.00
Comm    | 0.037959   | 0.039942   | 0.042863   |   0.8 | 42.30
Output  | 0.000631   | 0.000864   | 0.001058   |   0.0 |  0.92
Modify  | 0.011097   | 0.012302   | 0.013097   |   0.6 | 13.03
Other   |            | 0.03284    |            |       | 34.78

Nlocal:             64 ave          69 max          58 min
Histogram: 1 0 1 0 1 2 1 0 0 2
Nghost:          53.75 ave          60 max          42 min
Histogram: 1 0 1 0 1 0 0 2 0 3
Neighs:        167.125 ave         192 max         142 min
Histogram: 2 0 0 1 1 0 1 1 1 1

Total # of neighbors = 1337
Ave neighs/atom = 2.6113281
Neighbor list builds = 0
Dangerous builds = 0
print           "${i} ${st} ${phi} ${pr} ${KEtot}" append ${logfile}
print           "${i} ${st} ${phi} ${pr} ${KEtot}" append compress_rate/compress_rate_0.0001/log_compress_rate_0.0001.txt
53 580000 0.618205163113919 4.08703494360073e-06 2.59091294281068e-06
print           "${i} ${st} ${phi} ${pr} ${KEtot}" append ${pressfile}
print           "${i} ${st} ${phi} ${pr} ${KEtot}" append compress_rate/compress_rate_0.0001/press_phi_compress_rate_0.0001.txt
53 580000 0.618205163113919 4.08703494360073e-06 2.59091294281068e-06
next            i
jump            SELF loop_compress
variable        i loop ${ncycle}
variable        i loop 150
# @before(压缩之前的我不关注)
change_box      all x scale ${scale} y scale ${scale} remap units box
change_box      all x scale 0.998 y scale ${scale} remap units box
change_box      all x scale 0.998 y scale 0.998 remap units box
Changing box ...
  orthogonal box = (1.7676256 1.7365982 -0.1) to (32.732905 32.763933 0.1)
  orthogonal box = (1.7676256 1.7676256 -0.1) to (32.732905 32.732905 0.1)
velocity        all set 0.0 0.0 0.0       # 压缩后清零速度，避免把上一轮残余动量带进来
# @after
run             ${compress_loop}        # 每轮给足够松弛时间
run             10000        
Generated 0 of 1 mixed pair_coeff terms from geometric mixing rule
Per MPI rank memory allocation (min/avg/max) = 11.24 | 11.24 | 11.24 Mbytes
   Step        Atoms          Lx             Ly           v_phi          Press          KinEng        c_ke_rot   
    580000         512   30.96528       30.96528       0.62068542     6.0279342      0              0            
    585000         512   30.96528       30.96528       0.62068542     0.00044285356  4.1812433e-06  0            
    590000         512   30.96528       30.96528       0.62068542     3.7280132e-06  3.7662314e-09  0            
Loop time of 0.0868901 on 8 procs for 10000 steps with 512 atoms

Performance: 497179.628 tau/day, 115087.877 timesteps/s, 58.925 Matom-step/s
107.9% CPU use with 8 MPI tasks x 1 OpenMP threads

MPI task timing breakdown:
Section |  min time  |  avg time  |  max time  |%varavg| %total
---------------------------------------------------------------
Pair    | 0.005989   | 0.0080008  | 0.011352   |   1.7 |  9.21
Neigh   | 0          | 0          | 0          |   0.0 |  0.00
Comm    | 0.03483    | 0.036906   | 0.039123   |   0.7 | 42.47
Output  | 0.000694   | 0.00086812 | 0.001022   |   0.0 |  1.00
Modify  | 0.01121    | 0.012004   | 0.012683   |   0.5 | 13.82
Other   |            | 0.02911    |            |       | 33.50

Nlocal:             64 ave          68 max          58 min
Histogram: 1 0 0 1 0 0 2 2 0 2
Nghost:          54.25 ave          61 max          42 min
Histogram: 1 0 0 1 1 0 0 1 2 2
Neighs:        168.875 ave         193 max         144 min
Histogram: 2 0 0 1 1 0 1 1 1 1

Total # of neighbors = 1351
Ave neighs/atom = 2.6386719
Neighbor list builds = 0
Dangerous builds = 0
print           "${i} ${st} ${phi} ${pr} ${KEtot}" append ${logfile}
print           "${i} ${st} ${phi} ${pr} ${KEtot}" append compress_rate/compress_rate_0.0001/log_compress_rate_0.0001.txt
54 590000 0.620685422060472 3.72801320300102e-06 1.92831048314104e-06
print           "${i} ${st} ${phi} ${pr} ${KEtot}" append ${pressfile}
print           "${i} ${st} ${phi} ${pr} ${KEtot}" append compress_rate/compress_rate_0.0001/press_phi_compress_rate_0.0001.txt
54 590000 0.620685422060472 3.72801320300102e-06 1.92831048314104e-06
next            i
jump            SELF loop_compress
variable        i loop ${ncycle}
variable        i loop 150
# @before(压缩之前的我不关注)
change_box      all x scale ${scale} y scale ${scale} remap units box
change_box      all x scale 0.998 y scale ${scale} remap units box
change_box      all x scale 0.998 y scale 0.998 remap units box
Changing box ...
  orthogonal box = (1.7985909 1.7676256 -0.1) to (32.70194 32.732905 0.1)
  orthogonal box = (1.7985909 1.7985909 -0.1) to (32.70194 32.70194 0.1)
velocity        all set 0.0 0.0 0.0       # 压缩后清零速度，避免把上一轮残余动量带进来
# @after
run             ${compress_loop}        # 每轮给足够松弛时间
run             10000        
Generated 0 of 1 mixed pair_coeff terms from geometric mixing rule
Per MPI rank memory allocation (min/avg/max) = 11.24 | 11.24 | 11.24 Mbytes
   Step        Atoms          Lx             Ly           v_phi          Press          KinEng        c_ke_rot   
    590000         512   30.903349      30.903349      0.62317563     6.1622346      0              0            
    595000         512   30.903349      30.903349      0.62317563     0.00067728819  5.4836259e-06  0            
    600000         512   30.903349      30.903349      0.62317563     4.1996862e-06  4.8878476e-09  0            
Loop time of 0.0910569 on 8 procs for 10000 steps with 512 atoms

Performance: 474428.757 tau/day, 109821.471 timesteps/s, 56.229 Matom-step/s
87.9% CPU use with 8 MPI tasks x 1 OpenMP threads

MPI task timing breakdown:
Section |  min time  |  avg time  |  max time  |%varavg| %total
---------------------------------------------------------------
Pair    | 0.005603   | 0.0084487  | 0.012101   |   1.9 |  9.28
Neigh   | 0          | 0          | 0          |   0.0 |  0.00
Comm    | 0.034857   | 0.038291   | 0.041297   |   1.0 | 42.05
Output  | 0.00076    | 0.00095925 | 0.001157   |   0.0 |  1.05
Modify  | 0.011362   | 0.012123   | 0.012687   |   0.4 | 13.31
Other   |            | 0.03123    |            |       | 34.30

Nlocal:             64 ave          69 max          58 min
Histogram: 1 0 1 0 0 3 1 0 1 1
Nghost:         54.375 ave          61 max          42 min
Histogram: 1 0 0 1 1 0 0 2 0 3
Neighs:         169.25 ave         193 max         144 min
Histogram: 2 0 0 1 1 0 1 1 0 2

Total # of neighbors = 1354
Ave neighs/atom = 2.6445312
Neighbor list builds = 0
Dangerous builds = 0
print           "${i} ${st} ${phi} ${pr} ${KEtot}" append ${logfile}
print           "${i} ${st} ${phi} ${pr} ${KEtot}" append compress_rate/compress_rate_0.0001/log_compress_rate_0.0001.txt
55 600000 0.623175631885487 4.19968618813722e-06 2.50257798378599e-06
print           "${i} ${st} ${phi} ${pr} ${KEtot}" append ${pressfile}
print           "${i} ${st} ${phi} ${pr} ${KEtot}" append compress_rate/compress_rate_0.0001/press_phi_compress_rate_0.0001.txt
55 600000 0.623175631885487 4.19968618813722e-06 2.50257798378599e-06
next            i
jump            SELF loop_compress
variable        i loop ${ncycle}
variable        i loop 150
# @before(压缩之前的我不关注)
change_box      all x scale ${scale} y scale ${scale} remap units box
change_box      all x scale 0.998 y scale ${scale} remap units box
change_box      all x scale 0.998 y scale 0.998 remap units box
Changing box ...
  orthogonal box = (1.8294942 1.7985909 -0.1) to (32.671037 32.70194 0.1)
  orthogonal box = (1.8294942 1.8294942 -0.1) to (32.671037 32.671037 0.1)
velocity        all set 0.0 0.0 0.0       # 压缩后清零速度，避免把上一轮残余动量带进来
# @after
run             ${compress_loop}        # 每轮给足够松弛时间
run             10000        
Generated 0 of 1 mixed pair_coeff terms from geometric mixing rule
Per MPI rank memory allocation (min/avg/max) = 11.24 | 11.24 | 11.24 Mbytes
   Step        Atoms          Lx             Ly           v_phi          Press          KinEng        c_ke_rot   
    600000         512   30.841542      30.841542      0.62567583     6.6133447      0              0            
    605000         512   30.841542      30.841542      0.62567583     0.00062177358  5.2972885e-06  0            
    610000         512   30.841542      30.841542      0.62567583     5.8055288e-06  4.7013085e-09  0            
Loop time of 0.0934031 on 8 procs for 10000 steps with 512 atoms

Performance: 462511.292 tau/day, 107062.799 timesteps/s, 54.816 Matom-step/s
98.3% CPU use with 8 MPI tasks x 1 OpenMP threads

MPI task timing breakdown:
Section |  min time  |  avg time  |  max time  |%varavg| %total
---------------------------------------------------------------
Pair    | 0.006187   | 0.0088258  | 0.012398   |   1.9 |  9.45
Neigh   | 0          | 0          | 0          |   0.0 |  0.00
Comm    | 0.037396   | 0.03942    | 0.041238   |   0.6 | 42.20
Output  | 0.000709   | 0.00085937 | 0.001049   |   0.0 |  0.92
Modify  | 0.011426   | 0.012074   | 0.012844   |   0.4 | 12.93
Other   |            | 0.03222    |            |       | 34.50

Nlocal:             64 ave          68 max          58 min
Histogram: 1 0 0 1 0 0 2 2 0 2
Nghost:           54.5 ave          61 max          42 min
Histogram: 1 0 0 1 1 0 0 1 2 2
Neighs:        170.125 ave         195 max         144 min
Histogram: 2 0 0 1 1 0 1 1 1 1

Total # of neighbors = 1361
Ave neighs/atom = 2.6582031
Neighbor list builds = 0
Dangerous builds = 0
print           "${i} ${st} ${phi} ${pr} ${KEtot}" append ${logfile}
print           "${i} ${st} ${phi} ${pr} ${KEtot}" append compress_rate/compress_rate_0.0001/log_compress_rate_0.0001.txt
56 610000 0.625675832512205 5.80552876541362e-06 2.40706992655914e-06
print           "${i} ${st} ${phi} ${pr} ${KEtot}" append ${pressfile}
print           "${i} ${st} ${phi} ${pr} ${KEtot}" append compress_rate/compress_rate_0.0001/press_phi_compress_rate_0.0001.txt
56 610000 0.625675832512205 5.80552876541362e-06 2.40706992655914e-06
next            i
jump            SELF loop_compress
variable        i loop ${ncycle}
variable        i loop 150
# @before(压缩之前的我不关注)
change_box      all x scale ${scale} y scale ${scale} remap units box
change_box      all x scale 0.998 y scale ${scale} remap units box
change_box      all x scale 0.998 y scale 0.998 remap units box
Changing box ...
  orthogonal box = (1.8603358 1.8294942 -0.1) to (32.640195 32.671037 0.1)
  orthogonal box = (1.8603358 1.8603358 -0.1) to (32.640195 32.640195 0.1)
velocity        all set 0.0 0.0 0.0       # 压缩后清零速度，避免把上一轮残余动量带进来
# @after
run             ${compress_loop}        # 每轮给足够松弛时间
run             10000        
Generated 0 of 1 mixed pair_coeff terms from geometric mixing rule
Per MPI rank memory allocation (min/avg/max) = 11.24 | 11.24 | 11.24 Mbytes
   Step        Atoms          Lx             Ly           v_phi          Press          KinEng        c_ke_rot   
    610000         512   30.779859      30.779859      0.62818606     7.0314998      0              0            
    615000         512   30.779859      30.779859      0.62818606     0.00052560437  5.8412873e-06  0            
    620000         512   30.779859      30.779859      0.62818606     3.3771286e-06  5.3032361e-09  0            
Loop time of 0.093501 on 8 procs for 10000 steps with 512 atoms

Performance: 462027.144 tau/day, 106950.728 timesteps/s, 54.759 Matom-step/s
100.3% CPU use with 8 MPI tasks x 1 OpenMP threads

MPI task timing breakdown:
Section |  min time  |  avg time  |  max time  |%varavg| %total
---------------------------------------------------------------
Pair    | 0.006031   | 0.0085259  | 0.012139   |   1.8 |  9.12
Neigh   | 0          | 0          | 0          |   0.0 |  0.00
Comm    | 0.03745    | 0.039379   | 0.041552   |   0.7 | 42.12
Output  | 0.000851   | 0.0010843  | 0.001332   |   0.5 |  1.16
Modify  | 0.011137   | 0.012203   | 0.012848   |   0.5 | 13.05
Other   |            | 0.03231    |            |       | 34.55

Nlocal:             64 ave          69 max          58 min
Histogram: 1 0 1 0 0 3 1 0 1 1
Nghost:          54.75 ave          61 max          42 min
Histogram: 1 0 0 1 1 0 0 1 1 3
Neighs:            171 ave         195 max         144 min
Histogram: 2 0 0 1 1 0 1 1 0 2

Total # of neighbors = 1368
Ave neighs/atom = 2.671875
Neighbor list builds = 0
Dangerous builds = 0
print           "${i} ${st} ${phi} ${pr} ${KEtot}" append ${logfile}
print           "${i} ${st} ${phi} ${pr} ${KEtot}" append compress_rate/compress_rate_0.0001/log_compress_rate_0.0001.txt
57 620000 0.628186064024046 3.3771285902902e-06 2.71525690258689e-06
print           "${i} ${st} ${phi} ${pr} ${KEtot}" append ${pressfile}
print           "${i} ${st} ${phi} ${pr} ${KEtot}" append compress_rate/compress_rate_0.0001/press_phi_compress_rate_0.0001.txt
57 620000 0.628186064024046 3.3771285902902e-06 2.71525690258689e-06
next            i
jump            SELF loop_compress
variable        i loop ${ncycle}
variable        i loop 150
# @before(压缩之前的我不关注)
change_box      all x scale ${scale} y scale ${scale} remap units box
change_box      all x scale 0.998 y scale ${scale} remap units box
change_box      all x scale 0.998 y scale 0.998 remap units box
Changing box ...
  orthogonal box = (1.8911156 1.8603358 -0.1) to (32.609415 32.640195 0.1)
  orthogonal box = (1.8911156 1.8911156 -0.1) to (32.609415 32.609415 0.1)
velocity        all set 0.0 0.0 0.0       # 压缩后清零速度，避免把上一轮残余动量带进来
# @after
run             ${compress_loop}        # 每轮给足够松弛时间
run             10000        
Generated 0 of 1 mixed pair_coeff terms from geometric mixing rule
Per MPI rank memory allocation (min/avg/max) = 11.24 | 11.24 | 11.24 Mbytes
   Step        Atoms          Lx             Ly           v_phi          Press          KinEng        c_ke_rot   
    620000         512   30.7183        30.7183        0.63070637     6.5715995      0              0            
    625000         512   30.7183        30.7183        0.63070637     0.00054130337  4.9439564e-06  0            
    630000         512   30.7183        30.7183        0.63070637     5.3058014e-06  4.3349261e-09  0            
Loop time of 0.0953419 on 8 procs for 10000 steps with 512 atoms

Performance: 453106.256 tau/day, 104885.707 timesteps/s, 53.701 Matom-step/s
98.3% CPU use with 8 MPI tasks x 1 OpenMP threads

MPI task timing breakdown:
Section |  min time  |  avg time  |  max time  |%varavg| %total
---------------------------------------------------------------
Pair    | 0.005948   | 0.0088543  | 0.012632   |   1.9 |  9.29
Neigh   | 0          | 0          | 0          |   0.0 |  0.00
Comm    | 0.036885   | 0.039767   | 0.042938   |   1.1 | 41.71
Output  | 0.000701   | 0.00089838 | 0.001077   |   0.0 |  0.94
Modify  | 0.011588   | 0.012209   | 0.012995   |   0.4 | 12.81
Other   |            | 0.03361    |            |       | 35.25

Nlocal:             64 ave          69 max          58 min
Histogram: 1 0 1 0 0 3 1 0 1 1
Nghost:         54.875 ave          61 max          43 min
Histogram: 1 0 0 1 1 0 0 1 1 3
Neighs:         171.25 ave         195 max         146 min
Histogram: 2 0 0 1 1 0 1 1 1 1

Total # of neighbors = 1370
Ave neighs/atom = 2.6757812
Neighbor list builds = 0
Dangerous builds = 0
print           "${i} ${st} ${phi} ${pr} ${KEtot}" append ${logfile}
print           "${i} ${st} ${phi} ${pr} ${KEtot}" append compress_rate/compress_rate_0.0001/log_compress_rate_0.0001.txt
58 630000 0.63070636666524 5.30580143140014e-06 2.219482151982e-06
print           "${i} ${st} ${phi} ${pr} ${KEtot}" append ${pressfile}
print           "${i} ${st} ${phi} ${pr} ${KEtot}" append compress_rate/compress_rate_0.0001/press_phi_compress_rate_0.0001.txt
58 630000 0.63070636666524 5.30580143140014e-06 2.219482151982e-06
next            i
jump            SELF loop_compress
variable        i loop ${ncycle}
variable        i loop 150
# @before(压缩之前的我不关注)
change_box      all x scale ${scale} y scale ${scale} remap units box
change_box      all x scale 0.998 y scale ${scale} remap units box
change_box      all x scale 0.998 y scale 0.998 remap units box
Changing box ...
  orthogonal box = (1.9218339 1.8911156 -0.1) to (32.578697 32.609415 0.1)
  orthogonal box = (1.9218339 1.9218339 -0.1) to (32.578697 32.578697 0.1)
velocity        all set 0.0 0.0 0.0       # 压缩后清零速度，避免把上一轮残余动量带进来
# @after
run             ${compress_loop}        # 每轮给足够松弛时间
run             10000        
Generated 0 of 1 mixed pair_coeff terms from geometric mixing rule
Per MPI rank memory allocation (min/avg/max) = 11.24 | 11.24 | 11.24 Mbytes
   Step        Atoms          Lx             Ly           v_phi          Press          KinEng        c_ke_rot   
    630000         512   30.656863      30.656863      0.63323678     7.002213       0              0            
    635000         512   30.656863      30.656863      0.63323678     0.00038934617  4.9733721e-06  0            
    640000         512   30.656863      30.656863      0.63323678     3.0057087e-06  4.4994398e-09  0            
Loop time of 0.0941828 on 8 procs for 10000 steps with 512 atoms

Performance: 458682.721 tau/day, 106176.556 timesteps/s, 54.362 Matom-step/s
91.2% CPU use with 8 MPI tasks x 1 OpenMP threads

MPI task timing breakdown:
Section |  min time  |  avg time  |  max time  |%varavg| %total
---------------------------------------------------------------
Pair    | 0.006038   | 0.0082116  | 0.011078   |   1.7 |  8.72
Neigh   | 0          | 0          | 0          |   0.0 |  0.00
Comm    | 0.037449   | 0.039694   | 0.041692   |   0.6 | 42.15
Output  | 0.000837   | 0.0009745  | 0.00112    |   0.0 |  1.03
Modify  | 0.011126   | 0.012168   | 0.013131   |   0.5 | 12.92
Other   |            | 0.03313    |            |       | 35.18

Nlocal:             64 ave          69 max          58 min
Histogram: 1 0 1 0 0 3 1 0 1 1
Nghost:         55.125 ave          61 max          43 min
Histogram: 1 0 0 1 1 0 0 0 2 3
Neighs:         171.25 ave         195 max         145 min
Histogram: 1 1 0 0 2 0 1 1 1 1

Total # of neighbors = 1370
Ave neighs/atom = 2.6757812
Neighbor list builds = 0
Dangerous builds = 0
print           "${i} ${st} ${phi} ${pr} ${KEtot}" append ${logfile}
print           "${i} ${st} ${phi} ${pr} ${KEtot}" append compress_rate/compress_rate_0.0001/log_compress_rate_0.0001.txt
59 640000 0.633236780841482 3.00570874713699e-06 2.30371317530388e-06
print           "${i} ${st} ${phi} ${pr} ${KEtot}" append ${pressfile}
print           "${i} ${st} ${phi} ${pr} ${KEtot}" append compress_rate/compress_rate_0.0001/press_phi_compress_rate_0.0001.txt
59 640000 0.633236780841482 3.00570874713699e-06 2.30371317530388e-06
next            i
jump            SELF loop_compress
variable        i loop ${ncycle}
variable        i loop 150
# @before(压缩之前的我不关注)
change_box      all x scale ${scale} y scale ${scale} remap units box
change_box      all x scale 0.998 y scale ${scale} remap units box
change_box      all x scale 0.998 y scale 0.998 remap units box
Changing box ...
  orthogonal box = (1.9524908 1.9218339 -0.1) to (32.54804 32.578697 0.1)
  orthogonal box = (1.9524908 1.9524908 -0.1) to (32.54804 32.54804 0.1)
velocity        all set 0.0 0.0 0.0       # 压缩后清零速度，避免把上一轮残余动量带进来
# @after
run             ${compress_loop}        # 每轮给足够松弛时间
run             10000        
Generated 0 of 1 mixed pair_coeff terms from geometric mixing rule
Per MPI rank memory allocation (min/avg/max) = 11.24 | 11.24 | 11.24 Mbytes
   Step        Atoms          Lx             Ly           v_phi          Press          KinEng        c_ke_rot   
    640000         512   30.595549      30.595549      0.63577735     7.3671568      0              0            
    645000         512   30.595549      30.595549      0.63577735     0.00069264774  5.7735371e-06  0            
    650000         512   30.595549      30.595549      0.63577735     8.8107297e-06  5.0937273e-09  0            
Loop time of 0.0861844 on 8 procs for 10000 steps with 512 atoms

Performance: 501250.952 tau/day, 116030.313 timesteps/s, 59.408 Matom-step/s
106.5% CPU use with 8 MPI tasks x 1 OpenMP threads

MPI task timing breakdown:
Section |  min time  |  avg time  |  max time  |%varavg| %total
---------------------------------------------------------------
Pair    | 0.005971   | 0.0086221  | 0.012112   |   1.9 | 10.00
Neigh   | 0          | 0          | 0          |   0.0 |  0.00
Comm    | 0.035599   | 0.03726    | 0.038846   |   0.5 | 43.23
Output  | 0.000584   | 0.000726   | 0.00092    |   0.0 |  0.84
Modify  | 0.011186   | 0.011905   | 0.012731   |   0.4 | 13.81
Other   |            | 0.02767    |            |       | 32.11

Nlocal:             64 ave          68 max          58 min
Histogram: 1 0 0 1 0 0 2 2 0 2
Nghost:          55.25 ave          61 max          43 min
Histogram: 1 0 0 1 1 0 0 0 3 2
Neighs:        171.625 ave         195 max         146 min
Histogram: 1 1 0 1 1 0 1 1 1 1

Total # of neighbors = 1373
Ave neighs/atom = 2.6816406
Neighbor list builds = 0
Dangerous builds = 0
print           "${i} ${st} ${phi} ${pr} ${KEtot}" append ${logfile}
print           "${i} ${st} ${phi} ${pr} ${KEtot}" append compress_rate/compress_rate_0.0001/log_compress_rate_0.0001.txt
60 650000 0.635777347120576 8.81072967888235e-06 2.60798839598478e-06
print           "${i} ${st} ${phi} ${pr} ${KEtot}" append ${pressfile}
print           "${i} ${st} ${phi} ${pr} ${KEtot}" append compress_rate/compress_rate_0.0001/press_phi_compress_rate_0.0001.txt
60 650000 0.635777347120576 8.81072967888235e-06 2.60798839598478e-06
next            i
jump            SELF loop_compress
variable        i loop ${ncycle}
variable        i loop 150
# @before(压缩之前的我不关注)
change_box      all x scale ${scale} y scale ${scale} remap units box
change_box      all x scale 0.998 y scale ${scale} remap units box
change_box      all x scale 0.998 y scale 0.998 remap units box
Changing box ...
  orthogonal box = (1.9830863 1.9524908 -0.1) to (32.517444 32.54804 0.1)
  orthogonal box = (1.9830863 1.9830863 -0.1) to (32.517444 32.517444 0.1)
velocity        all set 0.0 0.0 0.0       # 压缩后清零速度，避免把上一轮残余动量带进来
# @after
run             ${compress_loop}        # 每轮给足够松弛时间
run             10000        
Generated 0 of 1 mixed pair_coeff terms from geometric mixing rule
Per MPI rank memory allocation (min/avg/max) = 11.24 | 11.24 | 11.24 Mbytes
   Step        Atoms          Lx             Ly           v_phi          Press          KinEng        c_ke_rot   
    650000         512   30.534358      30.534358      0.63832811     7.0965655      0              0            
    655000         512   30.534358      30.534358      0.63832811     0.00077913236  4.9539342e-06  0            
    660000         512   30.534358      30.534358      0.63832811     4.0857458e-06  4.429456e-09   0            
Loop time of 0.0892171 on 8 procs for 10000 steps with 512 atoms

Performance: 484211.972 tau/day, 112086.105 timesteps/s, 57.388 Matom-step/s
96.3% CPU use with 8 MPI tasks x 1 OpenMP threads

MPI task timing breakdown:
Section |  min time  |  avg time  |  max time  |%varavg| %total
---------------------------------------------------------------
Pair    | 0.00625    | 0.0083111  | 0.011788   |   1.9 |  9.32
Neigh   | 0          | 0          | 0          |   0.0 |  0.00
Comm    | 0.035146   | 0.03812    | 0.041657   |   1.1 | 42.73
Output  | 0.000615   | 0.0007815  | 0.000958   |   0.0 |  0.88
Modify  | 0.011374   | 0.012054   | 0.012671   |   0.4 | 13.51
Other   |            | 0.02995    |            |       | 33.57

Nlocal:             64 ave          68 max          58 min
Histogram: 1 0 0 1 0 0 2 2 0 2
Nghost:         55.375 ave          62 max          43 min
Histogram: 1 0 0 1 1 0 0 1 2 2
Neighs:          171.5 ave         195 max         146 min
Histogram: 1 1 0 1 1 0 1 1 1 1

Total # of neighbors = 1372
Ave neighs/atom = 2.6796875
Neighbor list builds = 0
Dangerous builds = 0
print           "${i} ${st} ${phi} ${pr} ${KEtot}" append ${logfile}
print           "${i} ${st} ${phi} ${pr} ${KEtot}" append compress_rate/compress_rate_0.0001/log_compress_rate_0.0001.txt
61 660000 0.638328106233084 4.08574583738344e-06 2.26788148695756e-06
print           "${i} ${st} ${phi} ${pr} ${KEtot}" append ${pressfile}
print           "${i} ${st} ${phi} ${pr} ${KEtot}" append compress_rate/compress_rate_0.0001/press_phi_compress_rate_0.0001.txt
61 660000 0.638328106233084 4.08574583738344e-06 2.26788148695756e-06
next            i
jump            SELF loop_compress
variable        i loop ${ncycle}
variable        i loop 150
# @before(压缩之前的我不关注)
change_box      all x scale ${scale} y scale ${scale} remap units box
change_box      all x scale 0.998 y scale ${scale} remap units box
change_box      all x scale 0.998 y scale 0.998 remap units box
Changing box ...
  orthogonal box = (2.0136207 1.9830863 -0.1) to (32.48691 32.517444 0.1)
  orthogonal box = (2.0136207 2.0136207 -0.1) to (32.48691 32.48691 0.1)
velocity        all set 0.0 0.0 0.0       # 压缩后清零速度，避免把上一轮残余动量带进来
# @after
run             ${compress_loop}        # 每轮给足够松弛时间
run             10000        
Generated 0 of 1 mixed pair_coeff terms from geometric mixing rule
Per MPI rank memory allocation (min/avg/max) = 11.24 | 11.24 | 11.24 Mbytes
   Step        Atoms          Lx             Ly           v_phi          Press          KinEng        c_ke_rot   
    660000         512   30.473289      30.473289      0.6408891      7.4883316      0              0            
    665000         512   30.473289      30.473289      0.6408891      0.00094423932  5.9911387e-06  0            
    670000         512   30.473289      30.473289      0.6408891      5.4135e-06     5.2480623e-09  0            
Loop time of 0.0809431 on 8 procs for 10000 steps with 512 atoms

Performance: 533708.082 tau/day, 123543.538 timesteps/s, 63.254 Matom-step/s
96.5% CPU use with 8 MPI tasks x 1 OpenMP threads

MPI task timing breakdown:
Section |  min time  |  avg time  |  max time  |%varavg| %total
---------------------------------------------------------------
Pair    | 0.006311   | 0.0083871  | 0.011271   |   1.6 | 10.36
Neigh   | 0          | 0          | 0          |   0.0 |  0.00
Comm    | 0.033084   | 0.035484   | 0.038878   |   1.1 | 43.84
Output  | 0.000616   | 0.0007985  | 0.000965   |   0.0 |  0.99
Modify  | 0.011126   | 0.011763   | 0.012284   |   0.4 | 14.53
Other   |            | 0.02451    |            |       | 30.28

Nlocal:             64 ave          67 max          58 min
Histogram: 1 0 0 1 0 0 2 0 3 1
Nghost:         55.375 ave          63 max          43 min
Histogram: 1 0 0 1 1 0 0 2 1 2
Neighs:         172.25 ave         193 max         147 min
Histogram: 1 1 0 0 1 1 1 0 2 1

Total # of neighbors = 1378
Ave neighs/atom = 2.6914062
Neighbor list builds = 0
Dangerous builds = 0
print           "${i} ${st} ${phi} ${pr} ${KEtot}" append ${logfile}
print           "${i} ${st} ${phi} ${pr} ${KEtot}" append compress_rate/compress_rate_0.0001/log_compress_rate_0.0001.txt
62 670000 0.640889099072979 5.41349996795847e-06 2.68700791090287e-06
print           "${i} ${st} ${phi} ${pr} ${KEtot}" append ${pressfile}
print           "${i} ${st} ${phi} ${pr} ${KEtot}" append compress_rate/compress_rate_0.0001/press_phi_compress_rate_0.0001.txt
62 670000 0.640889099072979 5.41349996795847e-06 2.68700791090287e-06
next            i
jump            SELF loop_compress
variable        i loop ${ncycle}
variable        i loop 150
# @before(压缩之前的我不关注)
change_box      all x scale ${scale} y scale ${scale} remap units box
change_box      all x scale 0.998 y scale ${scale} remap units box
change_box      all x scale 0.998 y scale 0.998 remap units box
Changing box ...
  orthogonal box = (2.044094 2.0136207 -0.1) to (32.456437 32.48691 0.1)
  orthogonal box = (2.044094 2.044094 -0.1) to (32.456437 32.456437 0.1)
velocity        all set 0.0 0.0 0.0       # 压缩后清零速度，避免把上一轮残余动量带进来
# @after
run             ${compress_loop}        # 每轮给足够松弛时间
run             10000        
Generated 0 of 1 mixed pair_coeff terms from geometric mixing rule
Per MPI rank memory allocation (min/avg/max) = 11.24 | 11.24 | 11.24 Mbytes
   Step        Atoms          Lx             Ly           v_phi          Press          KinEng        c_ke_rot   
    670000         512   30.412343      30.412343      0.64346037     7.5328982      0              0            
    675000         512   30.412343      30.412343      0.64346037     0.00052759483  5.8325184e-06  0            
    680000         512   30.412343      30.412343      0.64346037     5.2974531e-06  4.9594693e-09  0            
Loop time of 0.0854212 on 8 procs for 10000 steps with 512 atoms

Performance: 505728.961 tau/day, 117066.889 timesteps/s, 59.938 Matom-step/s
91.5% CPU use with 8 MPI tasks x 1 OpenMP threads

MPI task timing breakdown:
Section |  min time  |  avg time  |  max time  |%varavg| %total
---------------------------------------------------------------
Pair    | 0.006902   | 0.0086305  | 0.011736   |   1.6 | 10.10
Neigh   | 0          | 0          | 0          |   0.0 |  0.00
Comm    | 0.034365   | 0.036638   | 0.040293   |   1.0 | 42.89
Output  | 0.000687   | 0.00082863 | 0.000994   |   0.0 |  0.97
Modify  | 0.011112   | 0.011867   | 0.012489   |   0.4 | 13.89
Other   |            | 0.02746    |            |       | 32.14

Nlocal:             64 ave          68 max          58 min
Histogram: 1 0 0 1 0 0 2 1 2 1
Nghost:         55.375 ave          63 max          44 min
Histogram: 1 0 1 1 0 0 0 3 1 1
Neighs:         172.25 ave         191 max         147 min
Histogram: 1 1 0 0 1 1 1 0 1 2

Total # of neighbors = 1378
Ave neighs/atom = 2.6914062
Neighbor list builds = 0
Dangerous builds = 0
print           "${i} ${st} ${phi} ${pr} ${KEtot}" append ${logfile}
print           "${i} ${st} ${phi} ${pr} ${KEtot}" append compress_rate/compress_rate_0.0001/log_compress_rate_0.0001.txt
63 680000 0.643460366698305 5.29745305414501e-06 2.53924828521006e-06
print           "${i} ${st} ${phi} ${pr} ${KEtot}" append ${pressfile}
print           "${i} ${st} ${phi} ${pr} ${KEtot}" append compress_rate/compress_rate_0.0001/press_phi_compress_rate_0.0001.txt
63 680000 0.643460366698305 5.29745305414501e-06 2.53924828521006e-06
next            i
jump            SELF loop_compress
variable        i loop ${ncycle}
variable        i loop 150
# @before(压缩之前的我不关注)
change_box      all x scale ${scale} y scale ${scale} remap units box
change_box      all x scale 0.998 y scale ${scale} remap units box
change_box      all x scale 0.998 y scale 0.998 remap units box
Changing box ...
  orthogonal box = (2.0745063 2.044094 -0.1) to (32.426024 32.456437 0.1)
  orthogonal box = (2.0745063 2.0745063 -0.1) to (32.426024 32.426024 0.1)
velocity        all set 0.0 0.0 0.0       # 压缩后清零速度，避免把上一轮残余动量带进来
# @after
run             ${compress_loop}        # 每轮给足够松弛时间
run             10000        
Generated 0 of 1 mixed pair_coeff terms from geometric mixing rule
Per MPI rank memory allocation (min/avg/max) = 11.24 | 11.24 | 11.24 Mbytes
   Step        Atoms          Lx             Ly           v_phi          Press          KinEng        c_ke_rot   
    680000         512   30.351518      30.351518      0.64604195     8.1208962      0              0            
    685000         512   30.351518      30.351518      0.64604195     0.0010208419   6.7709965e-06  0            
    690000         512   30.351518      30.351518      0.64604195     9.8145809e-06  5.823603e-09   0            
Loop time of 0.0843999 on 8 procs for 10000 steps with 512 atoms

Performance: 511849.099 tau/day, 118483.588 timesteps/s, 60.664 Matom-step/s
94.9% CPU use with 8 MPI tasks x 1 OpenMP threads

MPI task timing breakdown:
Section |  min time  |  avg time  |  max time  |%varavg| %total
---------------------------------------------------------------
Pair    | 0.006472   | 0.00917    | 0.012581   |   2.0 | 10.86
Neigh   | 0          | 0          | 0          |   0.0 |  0.00
Comm    | 0.032696   | 0.035948   | 0.038556   |   1.1 | 42.59
Output  | 0.000683   | 0.00086012 | 0.001115   |   0.0 |  1.02
Modify  | 0.011316   | 0.011871   | 0.012414   |   0.4 | 14.07
Other   |            | 0.02655    |            |       | 31.46

Nlocal:             64 ave          67 max          58 min
Histogram: 1 0 0 1 0 0 2 0 3 1
Nghost:         55.375 ave          63 max          44 min
Histogram: 1 0 1 1 0 0 0 3 1 1
Neighs:          173.5 ave         191 max         149 min
Histogram: 1 1 0 0 1 0 2 0 0 3

Total # of neighbors = 1388
Ave neighs/atom = 2.7109375
Neighbor list builds = 0
Dangerous builds = 0
print           "${i} ${st} ${phi} ${pr} ${KEtot}" append ${logfile}
print           "${i} ${st} ${phi} ${pr} ${KEtot}" append compress_rate/compress_rate_0.0001/log_compress_rate_0.0001.txt
64 690000 0.646041950331831 9.81458089177148e-06 2.98168475456813e-06
print           "${i} ${st} ${phi} ${pr} ${KEtot}" append ${pressfile}
print           "${i} ${st} ${phi} ${pr} ${KEtot}" append compress_rate/compress_rate_0.0001/press_phi_compress_rate_0.0001.txt
64 690000 0.646041950331831 9.81458089177148e-06 2.98168475456813e-06
next            i
jump            SELF loop_compress
variable        i loop ${ncycle}
variable        i loop 150
# @before(压缩之前的我不关注)
change_box      all x scale ${scale} y scale ${scale} remap units box
change_box      all x scale 0.998 y scale ${scale} remap units box
change_box      all x scale 0.998 y scale 0.998 remap units box
Changing box ...
  orthogonal box = (2.1048578 2.0745063 -0.1) to (32.395673 32.426024 0.1)
  orthogonal box = (2.1048578 2.1048578 -0.1) to (32.395673 32.395673 0.1)
velocity        all set 0.0 0.0 0.0       # 压缩后清零速度，避免把上一轮残余动量带进来
# @after
run             ${compress_loop}        # 每轮给足够松弛时间
run             10000        
Generated 0 of 1 mixed pair_coeff terms from geometric mixing rule
Per MPI rank memory allocation (min/avg/max) = 11.24 | 11.24 | 11.24 Mbytes
   Step        Atoms          Lx             Ly           v_phi          Press          KinEng        c_ke_rot   
    690000         512   30.290815      30.290815      0.64863389     8.4844808      0              0            
    695000         512   30.290815      30.290815      0.64863389     0.00071289388  5.7661387e-06  0            
    700000         512   30.290815      30.290815      0.64863389     6.3923251e-06  5.0519231e-09  0            
Loop time of 0.0947931 on 8 procs for 10000 steps with 512 atoms

Performance: 455729.253 tau/day, 105492.883 timesteps/s, 54.012 Matom-step/s
98.9% CPU use with 8 MPI tasks x 1 OpenMP threads

MPI task timing breakdown:
Section |  min time  |  avg time  |  max time  |%varavg| %total
---------------------------------------------------------------
Pair    | 0.006942   | 0.0090113  | 0.011992   |   1.6 |  9.51
Neigh   | 0          | 0          | 0          |   0.0 |  0.00
Comm    | 0.037948   | 0.040073   | 0.042782   |   0.7 | 42.27
Output  | 0.00076    | 0.00093875 | 0.001101   |   0.0 |  0.99
Modify  | 0.011261   | 0.012143   | 0.012759   |   0.5 | 12.81
Other   |            | 0.03263    |            |       | 34.42

Nlocal:             64 ave          67 max          58 min
Histogram: 1 0 0 0 1 0 2 1 2 1
Nghost:           55.5 ave          64 max          44 min
Histogram: 1 0 1 1 0 0 0 3 1 1
Neighs:         173.75 ave         191 max         149 min
Histogram: 1 1 0 0 0 1 2 0 0 3

Total # of neighbors = 1390
Ave neighs/atom = 2.7148438
Neighbor list builds = 0
Dangerous builds = 0
print           "${i} ${st} ${phi} ${pr} ${KEtot}" append ${logfile}
print           "${i} ${st} ${phi} ${pr} ${KEtot}" append compress_rate/compress_rate_0.0001/log_compress_rate_0.0001.txt
65 700000 0.648633891361713 6.39232506035662e-06 2.58658461152965e-06
print           "${i} ${st} ${phi} ${pr} ${KEtot}" append ${pressfile}
print           "${i} ${st} ${phi} ${pr} ${KEtot}" append compress_rate/compress_rate_0.0001/press_phi_compress_rate_0.0001.txt
65 700000 0.648633891361713 6.39232506035662e-06 2.58658461152965e-06
next            i
jump            SELF loop_compress
variable        i loop ${ncycle}
variable        i loop 150
# @before(压缩之前的我不关注)
change_box      all x scale ${scale} y scale ${scale} remap units box
change_box      all x scale 0.998 y scale ${scale} remap units box
change_box      all x scale 0.998 y scale 0.998 remap units box
Changing box ...
  orthogonal box = (2.1351486 2.1048578 -0.1) to (32.365382 32.395673 0.1)
  orthogonal box = (2.1351486 2.1351486 -0.1) to (32.365382 32.365382 0.1)
velocity        all set 0.0 0.0 0.0       # 压缩后清零速度，避免把上一轮残余动量带进来
# @after
run             ${compress_loop}        # 每轮给足够松弛时间
run             10000        
Generated 0 of 1 mixed pair_coeff terms from geometric mixing rule
Per MPI rank memory allocation (min/avg/max) = 11.24 | 11.24 | 11.24 Mbytes
   Step        Atoms          Lx             Ly           v_phi          Press          KinEng        c_ke_rot   
    700000         512   30.230233      30.230233      0.65123623     7.8371681      0              0            
    705000         512   30.230233      30.230233      0.65123623     0.00067013481  5.7571856e-06  0            
    710000         512   30.230233      30.230233      0.65123623     8.0987596e-06  4.9806321e-09  0            
Loop time of 0.0896544 on 8 procs for 10000 steps with 512 atoms

Performance: 481850.440 tau/day, 111539.454 timesteps/s, 57.108 Matom-step/s
104.6% CPU use with 8 MPI tasks x 1 OpenMP threads

MPI task timing breakdown:
Section |  min time  |  avg time  |  max time  |%varavg| %total
---------------------------------------------------------------
Pair    | 0.006664   | 0.0091239  | 0.011236   |   1.4 | 10.18
Neigh   | 0          | 0          | 0          |   0.0 |  0.00
Comm    | 0.036223   | 0.038168   | 0.040508   |   0.8 | 42.57
Output  | 0.000718   | 0.00092213 | 0.001106   |   0.0 |  1.03
Modify  | 0.011419   | 0.012182   | 0.013122   |   0.5 | 13.59
Other   |            | 0.02926    |            |       | 32.63

Nlocal:             64 ave          66 max          58 min
Histogram: 1 0 0 0 0 1 0 2 0 4
Nghost:         55.375 ave          63 max          44 min
Histogram: 1 0 1 1 0 0 0 2 2 1
Neighs:        173.875 ave         191 max         150 min
Histogram: 2 0 0 0 1 0 2 0 1 2

Total # of neighbors = 1391
Ave neighs/atom = 2.7167969
Neighbor list builds = 0
Dangerous builds = 0
print           "${i} ${st} ${phi} ${pr} ${KEtot}" append ${logfile}
print           "${i} ${st} ${phi} ${pr} ${KEtot}" append compress_rate/compress_rate_0.0001/log_compress_rate_0.0001.txt
66 710000 0.651236231342156 8.0987596346308e-06 2.55008361575705e-06
print           "${i} ${st} ${phi} ${pr} ${KEtot}" append ${pressfile}
print           "${i} ${st} ${phi} ${pr} ${KEtot}" append compress_rate/compress_rate_0.0001/press_phi_compress_rate_0.0001.txt
66 710000 0.651236231342156 8.0987596346308e-06 2.55008361575705e-06
next            i
jump            SELF loop_compress
variable        i loop ${ncycle}
variable        i loop 150
# @before(压缩之前的我不关注)
change_box      all x scale ${scale} y scale ${scale} remap units box
change_box      all x scale 0.998 y scale ${scale} remap units box
change_box      all x scale 0.998 y scale 0.998 remap units box
Changing box ...
  orthogonal box = (2.1653789 2.1351486 -0.1) to (32.335152 32.365382 0.1)
  orthogonal box = (2.1653789 2.1653789 -0.1) to (32.335152 32.335152 0.1)
velocity        all set 0.0 0.0 0.0       # 压缩后清零速度，避免把上一轮残余动量带进来
# @after
run             ${compress_loop}        # 每轮给足够松弛时间
run             10000        
Generated 0 of 1 mixed pair_coeff terms from geometric mixing rule
Per MPI rank memory allocation (min/avg/max) = 11.24 | 11.24 | 11.24 Mbytes
   Step        Atoms          Lx             Ly           v_phi          Press          KinEng        c_ke_rot   
    710000         512   30.169773      30.169773      0.65384901     8.2650682      0              0            
    715000         512   30.169773      30.169773      0.65384901     0.00081691436  5.8991573e-06  0            
    720000         512   30.169773      30.169773      0.65384901     6.2181501e-06  5.1554068e-09  0            
Loop time of 0.112594 on 8 procs for 10000 steps with 512 atoms

Performance: 383680.266 tau/day, 88814.876 timesteps/s, 45.473 Matom-step/s
95.4% CPU use with 8 MPI tasks x 1 OpenMP threads

MPI task timing breakdown:
Section |  min time  |  avg time  |  max time  |%varavg| %total
---------------------------------------------------------------
Pair    | 0.007582   | 0.010738   | 0.014211   |   2.0 |  9.54
Neigh   | 0          | 0          | 0          |   0.0 |  0.00
Comm    | 0.042437   | 0.046057   | 0.048575   |   1.0 | 40.91
Output  | 0.000831   | 0.00098913 | 0.001165   |   0.0 |  0.88
Modify  | 0.012198   | 0.013448   | 0.014926   |   0.7 | 11.94
Other   |            | 0.04136    |            |       | 36.74

Nlocal:             64 ave          68 max          58 min
Histogram: 1 0 0 0 1 0 3 0 2 1
Nghost:          55.25 ave          64 max          43 min
Histogram: 1 0 1 1 0 0 0 2 2 1
Neighs:        174.625 ave         192 max         149 min
Histogram: 1 1 0 0 1 0 2 0 1 2

Total # of neighbors = 1397
Ave neighs/atom = 2.7285156
Neighbor list builds = 0
Dangerous builds = 0
print           "${i} ${st} ${phi} ${pr} ${KEtot}" append ${logfile}
print           "${i} ${st} ${phi} ${pr} ${KEtot}" append compress_rate/compress_rate_0.0001/log_compress_rate_0.0001.txt
67 720000 0.653849011994084 6.2181500589478e-06 2.63956829117688e-06
print           "${i} ${st} ${phi} ${pr} ${KEtot}" append ${pressfile}
print           "${i} ${st} ${phi} ${pr} ${KEtot}" append compress_rate/compress_rate_0.0001/press_phi_compress_rate_0.0001.txt
67 720000 0.653849011994084 6.2181500589478e-06 2.63956829117688e-06
next            i
jump            SELF loop_compress
variable        i loop ${ncycle}
variable        i loop 150
# @before(压缩之前的我不关注)
change_box      all x scale ${scale} y scale ${scale} remap units box
change_box      all x scale 0.998 y scale ${scale} remap units box
change_box      all x scale 0.998 y scale 0.998 remap units box
Changing box ...
  orthogonal box = (2.1955487 2.1653789 -0.1) to (32.304982 32.335152 0.1)
  orthogonal box = (2.1955487 2.1955487 -0.1) to (32.304982 32.304982 0.1)
velocity        all set 0.0 0.0 0.0       # 压缩后清零速度，避免把上一轮残余动量带进来
# @after
run             ${compress_loop}        # 每轮给足够松弛时间
run             10000        
Generated 0 of 1 mixed pair_coeff terms from geometric mixing rule
Per MPI rank memory allocation (min/avg/max) = 11.24 | 11.24 | 11.24 Mbytes
   Step        Atoms          Lx             Ly           v_phi          Press          KinEng        c_ke_rot   
    720000         512   30.109433      30.109433      0.65647228     8.3640952      0              0            
    725000         512   30.109433      30.109433      0.65647228     0.00094622509  6.1064941e-06  0            
    730000         512   30.109433      30.109433      0.65647228     6.1554241e-06  5.3718199e-09  0            
Loop time of 0.0852476 on 8 procs for 10000 steps with 512 atoms

Performance: 506758.986 tau/day, 117305.321 timesteps/s, 60.060 Matom-step/s
110.0% CPU use with 8 MPI tasks x 1 OpenMP threads

MPI task timing breakdown:
Section |  min time  |  avg time  |  max time  |%varavg| %total
---------------------------------------------------------------
Pair    | 0.007129   | 0.0092455  | 0.011633   |   1.5 | 10.85
Neigh   | 0          | 0          | 0          |   0.0 |  0.00
Comm    | 0.034686   | 0.03655    | 0.038946   |   0.7 | 42.88
Output  | 0.000696   | 0.00089212 | 0.001103   |   0.0 |  1.05
Modify  | 0.011227   | 0.011863   | 0.012653   |   0.4 | 13.92
Other   |            | 0.0267     |            |       | 31.32

Nlocal:             64 ave          67 max          58 min
Histogram: 1 0 0 0 1 0 2 1 2 1
Nghost:         55.375 ave          64 max          43 min
Histogram: 1 0 1 1 0 0 0 3 1 1
Neighs:          174.5 ave         192 max         150 min
Histogram: 2 0 0 0 1 0 2 0 0 3

Total # of neighbors = 1396
Ave neighs/atom = 2.7265625
Neighbor list builds = 0
Dangerous builds = 0
print           "${i} ${st} ${phi} ${pr} ${KEtot}" append ${logfile}
print           "${i} ${st} ${phi} ${pr} ${KEtot}" append compress_rate/compress_rate_0.0001/log_compress_rate_0.0001.txt
68 730000 0.656472275205806 6.15542413733377e-06 2.75037179882527e-06
print           "${i} ${st} ${phi} ${pr} ${KEtot}" append ${pressfile}
print           "${i} ${st} ${phi} ${pr} ${KEtot}" append compress_rate/compress_rate_0.0001/press_phi_compress_rate_0.0001.txt
68 730000 0.656472275205806 6.15542413733377e-06 2.75037179882527e-06
next            i
jump            SELF loop_compress
variable        i loop ${ncycle}
variable        i loop 150
# @before(压缩之前的我不关注)
change_box      all x scale ${scale} y scale ${scale} remap units box
change_box      all x scale 0.998 y scale ${scale} remap units box
change_box      all x scale 0.998 y scale 0.998 remap units box
Changing box ...
  orthogonal box = (2.2256581 2.1955487 -0.1) to (32.274873 32.304982 0.1)
  orthogonal box = (2.2256581 2.2256581 -0.1) to (32.274873 32.274873 0.1)
velocity        all set 0.0 0.0 0.0       # 压缩后清零速度，避免把上一轮残余动量带进来
# @after
run             ${compress_loop}        # 每轮给足够松弛时间
run             10000        
Generated 0 of 1 mixed pair_coeff terms from geometric mixing rule
Per MPI rank memory allocation (min/avg/max) = 11.24 | 11.24 | 11.24 Mbytes
   Step        Atoms          Lx             Ly           v_phi          Press          KinEng        c_ke_rot   
    730000         512   30.049215      30.049215      0.65910606     9.0187892      0              0            
    735000         512   30.049215      30.049215      0.65910606     0.0007699662   6.0665083e-06  0            
    740000         512   30.049215      30.049215      0.65910606     7.4296159e-06  5.2621699e-09  0            
Loop time of 0.102312 on 8 procs for 10000 steps with 512 atoms

Performance: 422237.861 tau/day, 97740.246 timesteps/s, 50.043 Matom-step/s
103.1% CPU use with 8 MPI tasks x 1 OpenMP threads

MPI task timing breakdown:
Section |  min time  |  avg time  |  max time  |%varavg| %total
---------------------------------------------------------------
Pair    | 0.007112   | 0.0097076  | 0.011851   |   1.5 |  9.49
Neigh   | 0          | 0          | 0          |   0.0 |  0.00
Comm    | 0.040776   | 0.042433   | 0.043895   |   0.6 | 41.47
Output  | 0.000726   | 0.00090963 | 0.001172   |   0.0 |  0.89
Modify  | 0.011342   | 0.012533   | 0.013404   |   0.6 | 12.25
Other   |            | 0.03673    |            |       | 35.90

Nlocal:             64 ave          68 max          58 min
Histogram: 1 0 0 0 1 0 3 0 2 1
Nghost:         55.875 ave          64 max          43 min
Histogram: 1 0 0 2 0 0 0 2 1 2
Neighs:        175.625 ave         194 max         150 min
Histogram: 1 1 0 0 1 1 1 0 1 2

Total # of neighbors = 1405
Ave neighs/atom = 2.7441406
Neighbor list builds = 0
Dangerous builds = 0
print           "${i} ${st} ${phi} ${pr} ${KEtot}" append ${logfile}
print           "${i} ${st} ${phi} ${pr} ${KEtot}" append compress_rate/compress_rate_0.0001/log_compress_rate_0.0001.txt
69 740000 0.659106063033689 7.42961585985437e-06 2.69423098838877e-06
print           "${i} ${st} ${phi} ${pr} ${KEtot}" append ${pressfile}
print           "${i} ${st} ${phi} ${pr} ${KEtot}" append compress_rate/compress_rate_0.0001/press_phi_compress_rate_0.0001.txt
69 740000 0.659106063033689 7.42961585985437e-06 2.69423098838877e-06
next            i
jump            SELF loop_compress
variable        i loop ${ncycle}
variable        i loop 150
# @before(压缩之前的我不关注)
change_box      all x scale ${scale} y scale ${scale} remap units box
change_box      all x scale 0.998 y scale ${scale} remap units box
change_box      all x scale 0.998 y scale 0.998 remap units box
Changing box ...
  orthogonal box = (2.2557073 2.2256581 -0.1) to (32.244823 32.274873 0.1)
  orthogonal box = (2.2557073 2.2557073 -0.1) to (32.244823 32.244823 0.1)
velocity        all set 0.0 0.0 0.0       # 压缩后清零速度，避免把上一轮残余动量带进来
# @after
run             ${compress_loop}        # 每轮给足够松弛时间
run             10000        
Generated 0 of 1 mixed pair_coeff terms from geometric mixing rule
Per MPI rank memory allocation (min/avg/max) = 11.24 | 11.24 | 11.24 Mbytes
   Step        Atoms          Lx             Ly           v_phi          Press          KinEng        c_ke_rot   
    740000         512   29.989116      29.989116      0.66175042     8.2851073      0              0            
    745000         512   29.989116      29.989116      0.66175042     0.00083040428  4.9986929e-06  0            
    750000         512   29.989116      29.989116      0.66175042     3.3320612e-06  4.4233699e-09  0            
Loop time of 0.100238 on 8 procs for 10000 steps with 512 atoms

Performance: 430973.744 tau/day, 99762.441 timesteps/s, 51.078 Matom-step/s
93.5% CPU use with 8 MPI tasks x 1 OpenMP threads

MPI task timing breakdown:
Section |  min time  |  avg time  |  max time  |%varavg| %total
---------------------------------------------------------------
Pair    | 0.007177   | 0.0094136  | 0.01192    |   1.8 |  9.39
Neigh   | 0          | 0          | 0          |   0.0 |  0.00
Comm    | 0.038886   | 0.041406   | 0.043314   |   0.7 | 41.31
Output  | 0.001489   | 0.001967   | 0.002263   |   0.6 |  1.96
Modify  | 0.011566   | 0.012373   | 0.013116   |   0.4 | 12.34
Other   |            | 0.03508    |            |       | 35.00

Nlocal:             64 ave          67 max          58 min
Histogram: 1 0 0 0 1 0 2 1 2 1
Nghost:         55.875 ave          64 max          43 min
Histogram: 1 0 0 2 0 0 0 2 1 2
Neighs:            176 ave         194 max         152 min
Histogram: 2 0 0 0 1 1 1 0 0 3

Total # of neighbors = 1408
Ave neighs/atom = 2.75
Neighbor list builds = 0
Dangerous builds = 0
print           "${i} ${st} ${phi} ${pr} ${KEtot}" append ${logfile}
print           "${i} ${st} ${phi} ${pr} ${KEtot}" append compress_rate/compress_rate_0.0001/log_compress_rate_0.0001.txt
70 750000 0.66175041770283 3.33206116556594e-06 2.26476539089576e-06
print           "${i} ${st} ${phi} ${pr} ${KEtot}" append ${pressfile}
print           "${i} ${st} ${phi} ${pr} ${KEtot}" append compress_rate/compress_rate_0.0001/press_phi_compress_rate_0.0001.txt
70 750000 0.66175041770283 3.33206116556594e-06 2.26476539089576e-06
next            i
jump            SELF loop_compress
variable        i loop ${ncycle}
variable        i loop 150
# @before(压缩之前的我不关注)
change_box      all x scale ${scale} y scale ${scale} remap units box
change_box      all x scale 0.998 y scale ${scale} remap units box
change_box      all x scale 0.998 y scale 0.998 remap units box
Changing box ...
  orthogonal box = (2.2856964 2.2557073 -0.1) to (32.214834 32.244823 0.1)
  orthogonal box = (2.2856964 2.2856964 -0.1) to (32.214834 32.214834 0.1)
velocity        all set 0.0 0.0 0.0       # 压缩后清零速度，避免把上一轮残余动量带进来
# @after
run             ${compress_loop}        # 每轮给足够松弛时间
run             10000        
Generated 0 of 1 mixed pair_coeff terms from geometric mixing rule
Per MPI rank memory allocation (min/avg/max) = 11.24 | 11.24 | 11.24 Mbytes
   Step        Atoms          Lx             Ly           v_phi          Press          KinEng        c_ke_rot   
    750000         512   29.929138      29.929138      0.66440538     8.3804259      0              0            
    755000         512   29.929138      29.929138      0.66440538     0.00086222833  5.8369117e-06  0            
    760000         512   29.929138      29.929138      0.66440538     8.106309e-06   5.01112e-09    0            
Loop time of 0.0987995 on 8 procs for 10000 steps with 512 atoms

Performance: 437249.176 tau/day, 101215.087 timesteps/s, 51.822 Matom-step/s
104.8% CPU use with 8 MPI tasks x 1 OpenMP threads

MPI task timing breakdown:
Section |  min time  |  avg time  |  max time  |%varavg| %total
---------------------------------------------------------------
Pair    | 0.007614   | 0.0099519  | 0.012271   |   1.5 | 10.07
Neigh   | 0          | 0          | 0          |   0.0 |  0.00
Comm    | 0.04044    | 0.041366   | 0.042191   |   0.3 | 41.87
Output  | 0.000851   | 0.001173   | 0.00147    |   0.6 |  1.19
Modify  | 0.011805   | 0.012583   | 0.013191   |   0.4 | 12.74
Other   |            | 0.03373    |            |       | 34.14

Nlocal:             64 ave          68 max          58 min
Histogram: 1 0 0 0 1 0 3 0 2 1
Nghost:         55.875 ave          64 max          43 min
Histogram: 1 0 0 2 0 0 0 2 1 2
Neighs:        176.875 ave         196 max         154 min
Histogram: 2 0 0 0 1 2 0 0 1 2

Total # of neighbors = 1415
Ave neighs/atom = 2.7636719
Neighbor list builds = 0
Dangerous builds = 0
print           "${i} ${st} ${phi} ${pr} ${KEtot}" append ${logfile}
print           "${i} ${st} ${phi} ${pr} ${KEtot}" append compress_rate/compress_rate_0.0001/log_compress_rate_0.0001.txt
71 760000 0.664405381607734 8.10630899509778e-06 2.56569344589223e-06
print           "${i} ${st} ${phi} ${pr} ${KEtot}" append ${pressfile}
print           "${i} ${st} ${phi} ${pr} ${KEtot}" append compress_rate/compress_rate_0.0001/press_phi_compress_rate_0.0001.txt
71 760000 0.664405381607734 8.10630899509778e-06 2.56569344589223e-06
next            i
jump            SELF loop_compress
variable        i loop ${ncycle}
variable        i loop 150
# @before(压缩之前的我不关注)
change_box      all x scale ${scale} y scale ${scale} remap units box
change_box      all x scale 0.998 y scale ${scale} remap units box
change_box      all x scale 0.998 y scale 0.998 remap units box
Changing box ...
  orthogonal box = (2.3156256 2.2856964 -0.1) to (32.184905 32.214834 0.1)
  orthogonal box = (2.3156256 2.3156256 -0.1) to (32.184905 32.184905 0.1)
velocity        all set 0.0 0.0 0.0       # 压缩后清零速度，避免把上一轮残余动量带进来
# @after
run             ${compress_loop}        # 每轮给足够松弛时间
run             10000        
Generated 0 of 1 mixed pair_coeff terms from geometric mixing rule
Per MPI rank memory allocation (min/avg/max) = 11.24 | 11.24 | 11.24 Mbytes
   Step        Atoms          Lx             Ly           v_phi          Press          KinEng        c_ke_rot   
    760000         512   29.86928       29.86928       0.667071       9.1451708      0              0            
    765000         512   29.86928       29.86928       0.667071       0.00072184509  5.9195408e-06  0            
    770000         512   29.86928       29.86928       0.667071       4.9609119e-06  5.2840083e-09  0            
Loop time of 0.0919269 on 8 procs for 10000 steps with 512 atoms

Performance: 469938.742 tau/day, 108782.116 timesteps/s, 55.696 Matom-step/s
97.7% CPU use with 8 MPI tasks x 1 OpenMP threads

MPI task timing breakdown:
Section |  min time  |  avg time  |  max time  |%varavg| %total
---------------------------------------------------------------
Pair    | 0.007924   | 0.0096389  | 0.011926   |   1.2 | 10.49
Neigh   | 0          | 0          | 0          |   0.0 |  0.00
Comm    | 0.037259   | 0.039126   | 0.040463   |   0.6 | 42.56
Output  | 0.000632   | 0.00076925 | 0.000927   |   0.0 |  0.84
Modify  | 0.011609   | 0.012434   | 0.013117   |   0.4 | 13.53
Other   |            | 0.02996    |            |       | 32.59

Nlocal:             64 ave          67 max          58 min
Histogram: 1 0 0 0 1 0 2 1 2 1
Nghost:         55.625 ave          63 max          43 min
Histogram: 1 0 0 2 0 0 0 0 3 2
Neighs:            178 ave         195 max         155 min
Histogram: 2 0 0 0 1 1 1 0 0 3

Total # of neighbors = 1424
Ave neighs/atom = 2.78125
Neighbor list builds = 0
Dangerous builds = 0
print           "${i} ${st} ${phi} ${pr} ${KEtot}" append ${logfile}
print           "${i} ${st} ${phi} ${pr} ${KEtot}" append compress_rate/compress_rate_0.0001/log_compress_rate_0.0001.txt
72 770000 0.667070997312997 4.96091190546973e-06 2.70541224921334e-06
print           "${i} ${st} ${phi} ${pr} ${KEtot}" append ${pressfile}
print           "${i} ${st} ${phi} ${pr} ${KEtot}" append compress_rate/compress_rate_0.0001/press_phi_compress_rate_0.0001.txt
72 770000 0.667070997312997 4.96091190546973e-06 2.70541224921334e-06
next            i
jump            SELF loop_compress
variable        i loop ${ncycle}
variable        i loop 150
# @before(压缩之前的我不关注)
change_box      all x scale ${scale} y scale ${scale} remap units box
change_box      all x scale 0.998 y scale ${scale} remap units box
change_box      all x scale 0.998 y scale 0.998 remap units box
Changing box ...
  orthogonal box = (2.3454948 2.3156256 -0.1) to (32.155036 32.184905 0.1)
  orthogonal box = (2.3454948 2.3454948 -0.1) to (32.155036 32.155036 0.1)
velocity        all set 0.0 0.0 0.0       # 压缩后清零速度，避免把上一轮残余动量带进来
# @after
run             ${compress_loop}        # 每轮给足够松弛时间
run             10000        
Generated 0 of 1 mixed pair_coeff terms from geometric mixing rule
Per MPI rank memory allocation (min/avg/max) = 11.24 | 11.24 | 11.24 Mbytes
   Step        Atoms          Lx             Ly           v_phi          Press          KinEng        c_ke_rot   
    770000         512   29.809541      29.809541      0.66974731     9.4695416      0              0            
    775000         512   29.809541      29.809541      0.66974731     0.0012089682   6.7602011e-06  0            
    780000         512   29.809541      29.809541      0.66974731     8.6383341e-06  5.9648945e-09  0            
Loop time of 0.0898752 on 8 procs for 10000 steps with 512 atoms

Performance: 480666.257 tau/day, 111265.337 timesteps/s, 56.968 Matom-step/s
97.8% CPU use with 8 MPI tasks x 1 OpenMP threads

MPI task timing breakdown:
Section |  min time  |  avg time  |  max time  |%varavg| %total
---------------------------------------------------------------
Pair    | 0.006318   | 0.0095414  | 0.011867   |   2.0 | 10.62
Neigh   | 0          | 0          | 0          |   0.0 |  0.00
Comm    | 0.035967   | 0.037929   | 0.039577   |   0.5 | 42.20
Output  | 0.000611   | 0.000817   | 0.001098   |   0.0 |  0.91
Modify  | 0.010978   | 0.011954   | 0.012922   |   0.6 | 13.30
Other   |            | 0.02963    |            |       | 32.97

Nlocal:             64 ave          68 max          58 min
Histogram: 1 0 0 0 1 0 3 0 2 1
Nghost:         55.625 ave          63 max          43 min
Histogram: 1 0 0 2 0 0 0 1 2 2
Neighs:          178.5 ave         197 max         156 min
Histogram: 2 0 0 0 1 2 0 0 1 2

Total # of neighbors = 1428
Ave neighs/atom = 2.7890625
Neighbor list builds = 0
Dangerous builds = 0
print           "${i} ${st} ${phi} ${pr} ${KEtot}" append ${logfile}
print           "${i} ${st} ${phi} ${pr} ${KEtot}" append compress_rate/compress_rate_0.0001/log_compress_rate_0.0001.txt
73 780000 0.669747307553982 8.63833405789707e-06 3.05402599587749e-06
print           "${i} ${st} ${phi} ${pr} ${KEtot}" append ${pressfile}
print           "${i} ${st} ${phi} ${pr} ${KEtot}" append compress_rate/compress_rate_0.0001/press_phi_compress_rate_0.0001.txt
73 780000 0.669747307553982 8.63833405789707e-06 3.05402599587749e-06
next            i
jump            SELF loop_compress
variable        i loop ${ncycle}
variable        i loop 150
# @before(压缩之前的我不关注)
change_box      all x scale ${scale} y scale ${scale} remap units box
change_box      all x scale 0.998 y scale ${scale} remap units box
change_box      all x scale 0.998 y scale 0.998 remap units box
Changing box ...
  orthogonal box = (2.3753044 2.3454948 -0.1) to (32.125226 32.155036 0.1)
  orthogonal box = (2.3753044 2.3753044 -0.1) to (32.125226 32.125226 0.1)
velocity        all set 0.0 0.0 0.0       # 压缩后清零速度，避免把上一轮残余动量带进来
# @after
run             ${compress_loop}        # 每轮给足够松弛时间
run             10000        
Generated 0 of 1 mixed pair_coeff terms from geometric mixing rule
Per MPI rank memory allocation (min/avg/max) = 11.24 | 11.24 | 11.24 Mbytes
   Step        Atoms          Lx             Ly           v_phi          Press          KinEng        c_ke_rot   
    780000         512   29.749922      29.749922      0.67243436     9.6492428      0              0            
    785000         512   29.749922      29.749922      0.67243436     0.00098419018  6.3766967e-06  0            
    790000         512   29.749922      29.749922      0.67243436     9.191296e-06   5.5589446e-09  0            
Loop time of 0.0970965 on 8 procs for 10000 steps with 512 atoms

Performance: 444918.200 tau/day, 102990.324 timesteps/s, 52.731 Matom-step/s
94.5% CPU use with 8 MPI tasks x 1 OpenMP threads

MPI task timing breakdown:
Section |  min time  |  avg time  |  max time  |%varavg| %total
---------------------------------------------------------------
Pair    | 0.00802    | 0.0103     | 0.013542   |   2.0 | 10.61
Neigh   | 0          | 0          | 0          |   0.0 |  0.00
Comm    | 0.035603   | 0.038398   | 0.042371   |   1.1 | 39.55
Output  | 0.0008     | 0.00098388 | 0.001229   |   0.0 |  1.01
Modify  | 0.011593   | 0.012875   | 0.014689   |   1.0 | 13.26
Other   |            | 0.03454    |            |       | 35.57

Nlocal:             64 ave          68 max          58 min
Histogram: 1 0 0 0 1 0 3 0 2 1
Nghost:         55.625 ave          63 max          43 min
Histogram: 1 0 0 2 0 0 0 1 2 2
Neighs:        180.125 ave         199 max         157 min
Histogram: 2 0 0 0 1 2 0 0 0 3

Total # of neighbors = 1441
Ave neighs/atom = 2.8144531
Neighbor list builds = 0
Dangerous builds = 0
print           "${i} ${st} ${phi} ${pr} ${KEtot}" append ${logfile}
print           "${i} ${st} ${phi} ${pr} ${KEtot}" append compress_rate/compress_rate_0.0001/log_compress_rate_0.0001.txt
74 790000 0.672434355237511 9.19129595584027e-06 2.84617963137862e-06
print           "${i} ${st} ${phi} ${pr} ${KEtot}" append ${pressfile}
print           "${i} ${st} ${phi} ${pr} ${KEtot}" append compress_rate/compress_rate_0.0001/press_phi_compress_rate_0.0001.txt
74 790000 0.672434355237511 9.19129595584027e-06 2.84617963137862e-06
next            i
jump            SELF loop_compress
variable        i loop ${ncycle}
variable        i loop 150
# @before(压缩之前的我不关注)
change_box      all x scale ${scale} y scale ${scale} remap units box
change_box      all x scale 0.998 y scale ${scale} remap units box
change_box      all x scale 0.998 y scale 0.998 remap units box
Changing box ...
  orthogonal box = (2.4050543 2.3753044 -0.1) to (32.095476 32.125226 0.1)
  orthogonal box = (2.4050543 2.4050543 -0.1) to (32.095476 32.095476 0.1)
velocity        all set 0.0 0.0 0.0       # 压缩后清零速度，避免把上一轮残余动量带进来
# @after
run             ${compress_loop}        # 每轮给足够松弛时间
run             10000        
Generated 0 of 1 mixed pair_coeff terms from geometric mixing rule
Per MPI rank memory allocation (min/avg/max) = 11.24 | 11.24 | 11.24 Mbytes
   Step        Atoms          Lx             Ly           v_phi          Press          KinEng        c_ke_rot   
    790000         512   29.690422      29.690422      0.67513218     9.3943449      0              0            
    795000         512   29.690422      29.690422      0.67513218     0.00080658778  5.4700432e-06  0            
    800000         512   29.690422      29.690422      0.67513218     6.1747839e-06  4.8508504e-09  0            
Loop time of 0.0904485 on 8 procs for 10000 steps with 512 atoms

Performance: 477619.861 tau/day, 110560.153 timesteps/s, 56.607 Matom-step/s
99.3% CPU use with 8 MPI tasks x 1 OpenMP threads

MPI task timing breakdown:
Section |  min time  |  avg time  |  max time  |%varavg| %total
---------------------------------------------------------------
Pair    | 0.006942   | 0.0096104  | 0.012787   |   1.7 | 10.63
Neigh   | 0          | 0          | 0          |   0.0 |  0.00
Comm    | 0.03653    | 0.037904   | 0.039805   |   0.6 | 41.91
Output  | 0.000791   | 0.0010291  | 0.001277   |   0.5 |  1.14
Modify  | 0.011327   | 0.011887   | 0.01239    |   0.3 | 13.14
Other   |            | 0.03002    |            |       | 33.19

Nlocal:             64 ave          68 max          59 min
Histogram: 1 0 0 1 1 2 0 2 0 1
Nghost:         55.625 ave          63 max          43 min
Histogram: 1 0 0 1 1 0 0 1 2 2
Neighs:         180.75 ave         202 max         159 min
Histogram: 2 0 0 0 3 0 0 1 0 2

Total # of neighbors = 1446
Ave neighs/atom = 2.8242188
Neighbor list builds = 0
Dangerous builds = 0
print           "${i} ${st} ${phi} ${pr} ${KEtot}" append ${logfile}
print           "${i} ${st} ${phi} ${pr} ${KEtot}" append compress_rate/compress_rate_0.0001/log_compress_rate_0.0001.txt
75 800000 0.675132183442548 6.17478390184355e-06 2.48363538068838e-06
print           "${i} ${st} ${phi} ${pr} ${KEtot}" append ${pressfile}
print           "${i} ${st} ${phi} ${pr} ${KEtot}" append compress_rate/compress_rate_0.0001/press_phi_compress_rate_0.0001.txt
75 800000 0.675132183442548 6.17478390184355e-06 2.48363538068838e-06
next            i
jump            SELF loop_compress
variable        i loop ${ncycle}
variable        i loop 150
# @before(压缩之前的我不关注)
change_box      all x scale ${scale} y scale ${scale} remap units box
change_box      all x scale 0.998 y scale ${scale} remap units box
change_box      all x scale 0.998 y scale 0.998 remap units box
Changing box ...
  orthogonal box = (2.4347447 2.4050543 -0.1) to (32.065786 32.095476 0.1)
  orthogonal box = (2.4347447 2.4347447 -0.1) to (32.065786 32.065786 0.1)
velocity        all set 0.0 0.0 0.0       # 压缩后清零速度，避免把上一轮残余动量带进来
# @after
run             ${compress_loop}        # 每轮给足够松弛时间
run             10000        
Generated 0 of 1 mixed pair_coeff terms from geometric mixing rule
Per MPI rank memory allocation (min/avg/max) = 11.24 | 11.24 | 11.24 Mbytes
   Step        Atoms          Lx             Ly           v_phi          Press          KinEng        c_ke_rot   
    800000         512   29.631041      29.631041      0.67784084     9.8677201      0              0            
    805000         512   29.631041      29.631041      0.67784084     0.0010660267   8.0131676e-06  0            
    810000         512   29.631041      29.631041      0.67784084     1.6841422e-05  6.8638346e-09  0            
Loop time of 0.087067 on 8 procs for 10000 steps with 512 atoms

Performance: 496169.617 tau/day, 114854.078 timesteps/s, 58.805 Matom-step/s
98.7% CPU use with 8 MPI tasks x 1 OpenMP threads

MPI task timing breakdown:
Section |  min time  |  avg time  |  max time  |%varavg| %total
---------------------------------------------------------------
Pair    | 0.008098   | 0.010276   | 0.012422   |   1.3 | 11.80
Neigh   | 0          | 0          | 0          |   0.0 |  0.00
Comm    | 0.035134   | 0.03649    | 0.038281   |   0.5 | 41.91
Output  | 0.000637   | 0.00099837 | 0.001382   |   0.0 |  1.15
Modify  | 0.011273   | 0.01178    | 0.012246   |   0.3 | 13.53
Other   |            | 0.02752    |            |       | 31.61

Nlocal:             64 ave          68 max          59 min
Histogram: 1 0 0 1 1 2 0 2 0 1
Nghost:         56.375 ave          63 max          45 min
Histogram: 1 0 1 1 0 0 0 1 2 2
Neighs:        181.875 ave         203 max         160 min
Histogram: 2 0 0 0 3 0 0 1 0 2

Total # of neighbors = 1455
Ave neighs/atom = 2.8417969
Neighbor list builds = 0
Dangerous builds = 0
print           "${i} ${st} ${phi} ${pr} ${KEtot}" append ${logfile}
print           "${i} ${st} ${phi} ${pr} ${KEtot}" append compress_rate/compress_rate_0.0001/log_compress_rate_0.0001.txt
76 810000 0.67784083542089 1.68414221626356e-05 3.51428329941795e-06
print           "${i} ${st} ${phi} ${pr} ${KEtot}" append ${pressfile}
print           "${i} ${st} ${phi} ${pr} ${KEtot}" append compress_rate/compress_rate_0.0001/press_phi_compress_rate_0.0001.txt
76 810000 0.67784083542089 1.68414221626356e-05 3.51428329941795e-06
next            i
jump            SELF loop_compress
variable        i loop ${ncycle}
variable        i loop 150
# @before(压缩之前的我不关注)
change_box      all x scale ${scale} y scale ${scale} remap units box
change_box      all x scale 0.998 y scale ${scale} remap units box
change_box      all x scale 0.998 y scale 0.998 remap units box
Changing box ...
  orthogonal box = (2.4643758 2.4347447 -0.1) to (32.036155 32.065786 0.1)
  orthogonal box = (2.4643758 2.4643758 -0.1) to (32.036155 32.036155 0.1)
velocity        all set 0.0 0.0 0.0       # 压缩后清零速度，避免把上一轮残余动量带进来
# @after
run             ${compress_loop}        # 每轮给足够松弛时间
run             10000        
Generated 0 of 1 mixed pair_coeff terms from geometric mixing rule
Per MPI rank memory allocation (min/avg/max) = 11.24 | 11.24 | 11.24 Mbytes
   Step        Atoms          Lx             Ly           v_phi          Press          KinEng        c_ke_rot   
    810000         512   29.571779      29.571779      0.68056035     10.520377      0              0            
    815000         512   29.571779      29.571779      0.68056035     0.00088283733  7.4488971e-06  0            
    820000         512   29.571779      29.571779      0.68056035     8.0786968e-06  6.4813379e-09  0            
Loop time of 0.0961777 on 8 procs for 10000 steps with 512 atoms

Performance: 449168.337 tau/day, 103974.152 timesteps/s, 53.235 Matom-step/s
93.4% CPU use with 8 MPI tasks x 1 OpenMP threads

MPI task timing breakdown:
Section |  min time  |  avg time  |  max time  |%varavg| %total
---------------------------------------------------------------
Pair    | 0.007669   | 0.010571   | 0.013137   |   1.7 | 10.99
Neigh   | 0          | 0          | 0          |   0.0 |  0.00
Comm    | 0.038183   | 0.039983   | 0.04191    |   0.7 | 41.57
Output  | 0.000631   | 0.00077563 | 0.000932   |   0.0 |  0.81
Modify  | 0.011073   | 0.012175   | 0.012949   |   0.5 | 12.66
Other   |            | 0.03267    |            |       | 33.97

Nlocal:             64 ave          68 max          59 min
Histogram: 1 0 0 1 1 2 0 2 0 1
Nghost:         56.625 ave          63 max          45 min
Histogram: 1 0 1 1 0 0 0 1 1 3
Neighs:         182.75 ave         204 max         161 min
Histogram: 2 0 0 0 3 0 0 1 0 2

Total # of neighbors = 1462
Ave neighs/atom = 2.8554688
Neighbor list builds = 0
Dangerous builds = 0
print           "${i} ${st} ${phi} ${pr} ${KEtot}" append ${logfile}
print           "${i} ${st} ${phi} ${pr} ${KEtot}" append compress_rate/compress_rate_0.0001/log_compress_rate_0.0001.txt
77 820000 0.680560354597863 8.07869680159054e-06 3.31844500302821e-06
print           "${i} ${st} ${phi} ${pr} ${KEtot}" append ${pressfile}
print           "${i} ${st} ${phi} ${pr} ${KEtot}" append compress_rate/compress_rate_0.0001/press_phi_compress_rate_0.0001.txt
77 820000 0.680560354597863 8.07869680159054e-06 3.31844500302821e-06
next            i
jump            SELF loop_compress
variable        i loop ${ncycle}
variable        i loop 150
# @before(压缩之前的我不关注)
change_box      all x scale ${scale} y scale ${scale} remap units box
change_box      all x scale 0.998 y scale ${scale} remap units box
change_box      all x scale 0.998 y scale 0.998 remap units box
Changing box ...
  orthogonal box = (2.4939475 2.4643758 -0.1) to (32.006583 32.036155 0.1)
  orthogonal box = (2.4939475 2.4939475 -0.1) to (32.006583 32.006583 0.1)
velocity        all set 0.0 0.0 0.0       # 压缩后清零速度，避免把上一轮残余动量带进来
# @after
run             ${compress_loop}        # 每轮给足够松弛时间
run             10000        
Generated 0 of 1 mixed pair_coeff terms from geometric mixing rule
Per MPI rank memory allocation (min/avg/max) = 11.24 | 11.24 | 11.24 Mbytes
   Step        Atoms          Lx             Ly           v_phi          Press          KinEng        c_ke_rot   
    820000         512   29.512636      29.512636      0.68329078     11.075501      0              0            
    825000         512   29.512636      29.512636      0.68329078     0.0021453886   1.0005553e-05  0            
    830000         512   29.512636      29.512636      0.68329078     1.2466635e-05  8.6897391e-09  0            
Loop time of 0.0955691 on 8 procs for 10000 steps with 512 atoms

Performance: 452028.833 tau/day, 104636.304 timesteps/s, 53.574 Matom-step/s
96.1% CPU use with 8 MPI tasks x 1 OpenMP threads

MPI task timing breakdown:
Section |  min time  |  avg time  |  max time  |%varavg| %total
---------------------------------------------------------------
Pair    | 0.008229   | 0.011181   | 0.013913   |   1.9 | 11.70
Neigh   | 0          | 0          | 0          |   0.0 |  0.00
Comm    | 0.036683   | 0.039151   | 0.041686   |   0.7 | 40.97
Output  | 0.000751   | 0.000922   | 0.001187   |   0.0 |  0.96
Modify  | 0.011242   | 0.012001   | 0.012835   |   0.5 | 12.56
Other   |            | 0.03231    |            |       | 33.81

Nlocal:             64 ave          68 max          59 min
Histogram: 1 0 0 1 1 2 0 2 0 1
Nghost:         56.625 ave          63 max          45 min
Histogram: 1 0 1 1 0 0 0 1 1 3
Neighs:         183.25 ave         206 max         162 min
Histogram: 2 0 0 1 2 0 0 1 1 1

Total # of neighbors = 1466
Ave neighs/atom = 2.8632812
Neighbor list builds = 0
Dangerous builds = 0
print           "${i} ${st} ${phi} ${pr} ${KEtot}" append ${logfile}
print           "${i} ${st} ${phi} ${pr} ${KEtot}" append compress_rate/compress_rate_0.0001/log_compress_rate_0.0001.txt
78 830000 0.683290784573017 1.24666345508208e-05 4.44914642883181e-06
print           "${i} ${st} ${phi} ${pr} ${KEtot}" append ${pressfile}
print           "${i} ${st} ${phi} ${pr} ${KEtot}" append compress_rate/compress_rate_0.0001/press_phi_compress_rate_0.0001.txt
78 830000 0.683290784573017 1.24666345508208e-05 4.44914642883181e-06
next            i
jump            SELF loop_compress
variable        i loop ${ncycle}
variable        i loop 150
# @before(压缩之前的我不关注)
change_box      all x scale ${scale} y scale ${scale} remap units box
change_box      all x scale 0.998 y scale ${scale} remap units box
change_box      all x scale 0.998 y scale 0.998 remap units box
Changing box ...
  orthogonal box = (2.5234602 2.4939475 -0.1) to (31.977071 32.006583 0.1)
  orthogonal box = (2.5234602 2.5234602 -0.1) to (31.977071 31.977071 0.1)
velocity        all set 0.0 0.0 0.0       # 压缩后清零速度，避免把上一轮残余动量带进来
# @after
run             ${compress_loop}        # 每轮给足够松弛时间
run             10000        
Generated 0 of 1 mixed pair_coeff terms from geometric mixing rule
Per MPI rank memory allocation (min/avg/max) = 11.24 | 11.24 | 11.24 Mbytes
   Step        Atoms          Lx             Ly           v_phi          Press          KinEng        c_ke_rot   
    830000         512   29.45361       29.45361       0.68603217     11.361596      0              0            
    835000         512   29.45361       29.45361       0.68603217     0.0015991065   8.8334662e-06  0            
    840000         512   29.45361       29.45361       0.68603217     1.1978843e-05  7.6248075e-09  0            
Loop time of 0.0977045 on 8 procs for 10000 steps with 512 atoms

Performance: 442149.543 tau/day, 102349.431 timesteps/s, 52.403 Matom-step/s
109.9% CPU use with 8 MPI tasks x 1 OpenMP threads

MPI task timing breakdown:
Section |  min time  |  avg time  |  max time  |%varavg| %total
---------------------------------------------------------------
Pair    | 0.006937   | 0.010906   | 0.0134     |   1.8 | 11.16
Neigh   | 0          | 0          | 0          |   0.0 |  0.00
Comm    | 0.038232   | 0.040527   | 0.043521   |   0.8 | 41.48
Output  | 0.000689   | 0.00084263 | 0.001      |   0.0 |  0.86
Modify  | 0.011093   | 0.012223   | 0.012908   |   0.6 | 12.51
Other   |            | 0.03321    |            |       | 33.99

Nlocal:             64 ave          68 max          59 min
Histogram: 1 0 0 1 1 2 0 2 0 1
Nghost:          56.75 ave          64 max          45 min
Histogram: 1 0 1 1 0 0 1 1 1 2
Neighs:        183.375 ave         206 max         162 min
Histogram: 2 0 0 2 0 1 0 1 0 2

Total # of neighbors = 1467
Ave neighs/atom = 2.8652344
Neighbor list builds = 0
Dangerous builds = 0
print           "${i} ${st} ${phi} ${pr} ${KEtot}" append ${logfile}
print           "${i} ${st} ${phi} ${pr} ${KEtot}" append compress_rate/compress_rate_0.0001/log_compress_rate_0.0001.txt
79 840000 0.686032169120824 1.1978842638813e-05 3.90390142497908e-06
print           "${i} ${st} ${phi} ${pr} ${KEtot}" append ${pressfile}
print           "${i} ${st} ${phi} ${pr} ${KEtot}" append compress_rate/compress_rate_0.0001/press_phi_compress_rate_0.0001.txt
79 840000 0.686032169120824 1.1978842638813e-05 3.90390142497908e-06
next            i
jump            SELF loop_compress
variable        i loop ${ncycle}
variable        i loop 150
# @before(压缩之前的我不关注)
change_box      all x scale ${scale} y scale ${scale} remap units box
change_box      all x scale 0.998 y scale ${scale} remap units box
change_box      all x scale 0.998 y scale 0.998 remap units box
Changing box ...
  orthogonal box = (2.5529138 2.5234602 -0.1) to (31.947617 31.977071 0.1)
  orthogonal box = (2.5529138 2.5529138 -0.1) to (31.947617 31.947617 0.1)
velocity        all set 0.0 0.0 0.0       # 压缩后清零速度，避免把上一轮残余动量带进来
# @after
run             ${compress_loop}        # 每轮给足够松弛时间
run             10000        
Generated 0 of 1 mixed pair_coeff terms from geometric mixing rule
Per MPI rank memory allocation (min/avg/max) = 11.24 | 11.24 | 11.24 Mbytes
   Step        Atoms          Lx             Ly           v_phi          Press          KinEng        c_ke_rot   
    840000         512   29.394703      29.394703      0.68878455     11.245211      0              0            
    845000         512   29.394703      29.394703      0.68878455     0.001736409    9.1370262e-06  0            
    850000         512   29.394703      29.394703      0.68878455     1.7263778e-05  7.6891909e-09  0            
Loop time of 0.0875269 on 8 procs for 10000 steps with 512 atoms

Performance: 493562.691 tau/day, 114250.623 timesteps/s, 58.496 Matom-step/s
87.0% CPU use with 8 MPI tasks x 1 OpenMP threads

MPI task timing breakdown:
Section |  min time  |  avg time  |  max time  |%varavg| %total
---------------------------------------------------------------
Pair    | 0.008103   | 0.010915   | 0.014214   |   2.1 | 12.47
Neigh   | 0          | 0          | 0          |   0.0 |  0.00
Comm    | 0.034252   | 0.036545   | 0.038376   |   0.8 | 41.75
Output  | 0.000676   | 0.00086862 | 0.001077   |   0.0 |  0.99
Modify  | 0.011099   | 0.011768   | 0.012469   |   0.5 | 13.45
Other   |            | 0.02743    |            |       | 31.34

Nlocal:             64 ave          68 max          59 min
Histogram: 1 0 0 1 2 0 2 0 1 1
Nghost:          56.75 ave          64 max          46 min
Histogram: 1 1 1 0 0 0 1 1 1 2
Neighs:         184.25 ave         206 max         162 min
Histogram: 2 0 0 0 2 0 2 0 1 1

Total # of neighbors = 1474
Ave neighs/atom = 2.8789062
Neighbor list builds = 0
Dangerous builds = 0
print           "${i} ${st} ${phi} ${pr} ${KEtot}" append ${logfile}
print           "${i} ${st} ${phi} ${pr} ${KEtot}" append compress_rate/compress_rate_0.0001/log_compress_rate_0.0001.txt
80 850000 0.68878455219138 1.72637784526902e-05 3.93686575647977e-06
print           "${i} ${st} ${phi} ${pr} ${KEtot}" append ${pressfile}
print           "${i} ${st} ${phi} ${pr} ${KEtot}" append compress_rate/compress_rate_0.0001/press_phi_compress_rate_0.0001.txt
80 850000 0.68878455219138 1.72637784526902e-05 3.93686575647977e-06
next            i
jump            SELF loop_compress
variable        i loop ${ncycle}
variable        i loop 150
# @before(压缩之前的我不关注)
change_box      all x scale ${scale} y scale ${scale} remap units box
change_box      all x scale 0.998 y scale ${scale} remap units box
change_box      all x scale 0.998 y scale 0.998 remap units box
Changing box ...
  orthogonal box = (2.5823085 2.5529138 -0.1) to (31.918222 31.947617 0.1)
  orthogonal box = (2.5823085 2.5823085 -0.1) to (31.918222 31.918222 0.1)
velocity        all set 0.0 0.0 0.0       # 压缩后清零速度，避免把上一轮残余动量带进来
# @after
run             ${compress_loop}        # 每轮给足够松弛时间
run             10000        
Generated 0 of 1 mixed pair_coeff terms from geometric mixing rule
Per MPI rank memory allocation (min/avg/max) = 11.24 | 11.24 | 11.24 Mbytes
   Step        Atoms          Lx             Ly           v_phi          Press          KinEng        c_ke_rot   
    850000         512   29.335914      29.335914      0.69154798     12.450675      0              0            
    855000         512   29.335914      29.335914      0.69154798     0.0018185334   1.1661578e-05  0            
    860000         512   29.335914      29.335914      0.69154798     2.003722e-05   9.9484967e-09  0            
Loop time of 0.0926383 on 8 procs for 10000 steps with 512 atoms

Performance: 466330.053 tau/day, 107946.771 timesteps/s, 55.269 Matom-step/s
97.0% CPU use with 8 MPI tasks x 1 OpenMP threads

MPI task timing breakdown:
Section |  min time  |  avg time  |  max time  |%varavg| %total
---------------------------------------------------------------
Pair    | 0.008103   | 0.011609   | 0.014213   |   2.0 | 12.53
Neigh   | 0          | 0          | 0          |   0.0 |  0.00
Comm    | 0.037726   | 0.039038   | 0.040144   |   0.4 | 42.14
Output  | 0.000577   | 0.00078663 | 0.000989   |   0.0 |  0.85
Modify  | 0.010774   | 0.011872   | 0.012804   |   0.6 | 12.82
Other   |            | 0.02933    |            |       | 31.66

Nlocal:             64 ave          68 max          59 min
Histogram: 1 0 0 1 2 0 2 0 1 1
Nghost:          56.75 ave          64 max          46 min
Histogram: 1 1 1 0 0 0 1 1 1 2
Neighs:        184.125 ave         206 max         162 min
Histogram: 2 0 0 1 1 0 2 0 1 1

Total # of neighbors = 1473
Ave neighs/atom = 2.8769531
Neighbor list builds = 0
Dangerous builds = 0
print           "${i} ${st} ${phi} ${pr} ${KEtot}" append ${logfile}
print           "${i} ${st} ${phi} ${pr} ${KEtot}" append compress_rate/compress_rate_0.0001/log_compress_rate_0.0001.txt
81 860000 0.691547977911113 2.0037219898239e-05 5.0936303318129e-06
print           "${i} ${st} ${phi} ${pr} ${KEtot}" append ${pressfile}
print           "${i} ${st} ${phi} ${pr} ${KEtot}" append compress_rate/compress_rate_0.0001/press_phi_compress_rate_0.0001.txt
81 860000 0.691547977911113 2.0037219898239e-05 5.0936303318129e-06
next            i
jump            SELF loop_compress
variable        i loop ${ncycle}
variable        i loop 150
# @before(压缩之前的我不关注)
change_box      all x scale ${scale} y scale ${scale} remap units box
change_box      all x scale 0.998 y scale ${scale} remap units box
change_box      all x scale 0.998 y scale 0.998 remap units box
Changing box ...
  orthogonal box = (2.6116444 2.5823085 -0.1) to (31.888886 31.918222 0.1)
  orthogonal box = (2.6116444 2.6116444 -0.1) to (31.888886 31.888886 0.1)
velocity        all set 0.0 0.0 0.0       # 压缩后清零速度，避免把上一轮残余动量带进来
# @after
run             ${compress_loop}        # 每轮给足够松弛时间
run             10000        
Generated 0 of 1 mixed pair_coeff terms from geometric mixing rule
Per MPI rank memory allocation (min/avg/max) = 11.24 | 11.24 | 11.24 Mbytes
   Step        Atoms          Lx             Ly           v_phi          Press          KinEng        c_ke_rot   
    860000         512   29.277242      29.277242      0.69432249     12.47948       0              0            
    865000         512   29.277242      29.277242      0.69432249     0.0025420236   1.1424297e-05  0            
    870000         512   29.277242      29.277242      0.69432249     3.1015907e-05  9.3468442e-09  0            
Loop time of 0.094282 on 8 procs for 10000 steps with 512 atoms

Performance: 458199.868 tau/day, 106064.784 timesteps/s, 54.305 Matom-step/s
99.4% CPU use with 8 MPI tasks x 1 OpenMP threads

MPI task timing breakdown:
Section |  min time  |  avg time  |  max time  |%varavg| %total
---------------------------------------------------------------
Pair    | 0.008351   | 0.011897   | 0.016128   |   2.4 | 12.62
Neigh   | 0          | 0          | 0          |   0.0 |  0.00
Comm    | 0.037513   | 0.038452   | 0.040026   |   0.4 | 40.78
Output  | 0.000735   | 0.000883   | 0.001038   |   0.0 |  0.94
Modify  | 0.010938   | 0.011989   | 0.01303    |   0.6 | 12.72
Other   |            | 0.03106    |            |       | 32.94

Nlocal:             64 ave          68 max          59 min
Histogram: 1 0 0 1 2 0 2 0 1 1
Nghost:           57.5 ave          64 max          47 min
Histogram: 1 0 2 0 0 0 0 2 1 2
Neighs:        184.625 ave         205 max         162 min
Histogram: 2 0 0 1 0 1 1 1 1 1

Total # of neighbors = 1477
Ave neighs/atom = 2.8847656
Neighbor list builds = 0
Dangerous builds = 0
print           "${i} ${st} ${phi} ${pr} ${KEtot}" append ${logfile}
print           "${i} ${st} ${phi} ${pr} ${KEtot}" append compress_rate/compress_rate_0.0001/log_compress_rate_0.0001.txt
82 870000 0.694322490583485 3.10159072754096e-05 4.78558421149991e-06
print           "${i} ${st} ${phi} ${pr} ${KEtot}" append ${pressfile}
print           "${i} ${st} ${phi} ${pr} ${KEtot}" append compress_rate/compress_rate_0.0001/press_phi_compress_rate_0.0001.txt
82 870000 0.694322490583485 3.10159072754096e-05 4.78558421149991e-06
next            i
jump            SELF loop_compress
variable        i loop ${ncycle}
variable        i loop 150
# @before(压缩之前的我不关注)
change_box      all x scale ${scale} y scale ${scale} remap units box
change_box      all x scale 0.998 y scale ${scale} remap units box
change_box      all x scale 0.998 y scale 0.998 remap units box
Changing box ...
  orthogonal box = (2.6409216 2.6116444 -0.1) to (31.859609 31.888886 0.1)
  orthogonal box = (2.6409216 2.6409216 -0.1) to (31.859609 31.859609 0.1)
velocity        all set 0.0 0.0 0.0       # 压缩后清零速度，避免把上一轮残余动量带进来
# @after
run             ${compress_loop}        # 每轮给足够松弛时间
run             10000        
Generated 0 of 1 mixed pair_coeff terms from geometric mixing rule
Per MPI rank memory allocation (min/avg/max) = 11.24 | 11.24 | 11.24 Mbytes
   Step        Atoms          Lx             Ly           v_phi          Press          KinEng        c_ke_rot   
    870000         512   29.218687      29.218687      0.69710813     12.866799      0              0            
    875000         512   29.218687      29.218687      0.69710813     0.0020670854   1.1705576e-05  0            
    880000         512   29.218687      29.218687      0.69710813     1.8644366e-05  9.8332545e-09  0            
Loop time of 0.0965824 on 8 procs for 10000 steps with 512 atoms

Performance: 447286.578 tau/day, 103538.560 timesteps/s, 53.012 Matom-step/s
95.0% CPU use with 8 MPI tasks x 1 OpenMP threads

MPI task timing breakdown:
Section |  min time  |  avg time  |  max time  |%varavg| %total
---------------------------------------------------------------
Pair    | 0.00881    | 0.011929   | 0.01539    |   2.1 | 12.35
Neigh   | 0          | 0          | 0          |   0.0 |  0.00
Comm    | 0.038844   | 0.03972    | 0.040265   |   0.2 | 41.13
Output  | 0.000802   | 0.0010798  | 0.001422   |   0.6 |  1.12
Modify  | 0.011008   | 0.011936   | 0.012805   |   0.5 | 12.36
Other   |            | 0.03192    |            |       | 33.05

Nlocal:             64 ave          68 max          59 min
Histogram: 1 0 0 1 2 0 2 0 1 1
Nghost:           57.5 ave          64 max          47 min
Histogram: 1 0 2 0 0 0 0 2 1 2
Neighs:            185 ave         207 max         162 min
Histogram: 2 0 0 1 0 1 2 0 1 1

Total # of neighbors = 1480
Ave neighs/atom = 2.890625
Neighbor list builds = 0
Dangerous builds = 0
print           "${i} ${st} ${phi} ${pr} ${KEtot}" append ${logfile}
print           "${i} ${st} ${phi} ${pr} ${KEtot}" append compress_rate/compress_rate_0.0001/log_compress_rate_0.0001.txt
83 880000 0.697108134689705 1.86443659968531e-05 5.03462631532733e-06
print           "${i} ${st} ${phi} ${pr} ${KEtot}" append ${pressfile}
print           "${i} ${st} ${phi} ${pr} ${KEtot}" append compress_rate/compress_rate_0.0001/press_phi_compress_rate_0.0001.txt
83 880000 0.697108134689705 1.86443659968531e-05 5.03462631532733e-06
next            i
jump            SELF loop_compress
variable        i loop ${ncycle}
variable        i loop 150
# @before(压缩之前的我不关注)
change_box      all x scale ${scale} y scale ${scale} remap units box
change_box      all x scale 0.998 y scale ${scale} remap units box
change_box      all x scale 0.998 y scale 0.998 remap units box
Changing box ...
  orthogonal box = (2.6701403 2.6409216 -0.1) to (31.83039 31.859609 0.1)
  orthogonal box = (2.6701403 2.6701403 -0.1) to (31.83039 31.83039 0.1)
velocity        all set 0.0 0.0 0.0       # 压缩后清零速度，避免把上一轮残余动量带进来
# @after
run             ${compress_loop}        # 每轮给足够松弛时间
run             10000        
Generated 0 of 1 mixed pair_coeff terms from geometric mixing rule
Per MPI rank memory allocation (min/avg/max) = 11.24 | 11.24 | 11.24 Mbytes
   Step        Atoms          Lx             Ly           v_phi          Press          KinEng        c_ke_rot   
    880000         512   29.16025       29.16025       0.69990495     13.037193      0              0            
    885000         512   29.16025       29.16025       0.69990495     0.0021218507   1.0849922e-05  0            
    890000         512   29.16025       29.16025       0.69990495     2.0927033e-05  9.1559072e-09  0            
Loop time of 0.110644 on 8 procs for 10000 steps with 512 atoms

Performance: 390442.298 tau/day, 90380.162 timesteps/s, 46.275 Matom-step/s
97.1% CPU use with 8 MPI tasks x 1 OpenMP threads

MPI task timing breakdown:
Section |  min time  |  avg time  |  max time  |%varavg| %total
---------------------------------------------------------------
Pair    | 0.009201   | 0.012785   | 0.016113   |   2.3 | 11.56
Neigh   | 0          | 0          | 0          |   0.0 |  0.00
Comm    | 0.040109   | 0.044081   | 0.047792   |   1.1 | 39.84
Output  | 0.000783   | 0.00098375 | 0.001189   |   0.0 |  0.89
Modify  | 0.011623   | 0.012307   | 0.01307    |   0.4 | 11.12
Other   |            | 0.04049    |            |       | 36.59

Nlocal:             64 ave          68 max          59 min
Histogram: 1 0 0 1 2 0 2 0 1 1
Nghost:         57.875 ave          64 max          49 min
Histogram: 1 1 1 0 0 0 0 2 0 3
Neighs:            186 ave         209 max         163 min
Histogram: 2 0 0 1 0 1 2 0 1 1

Total # of neighbors = 1488
Ave neighs/atom = 2.90625
Neighbor list builds = 0
Dangerous builds = 0
print           "${i} ${st} ${phi} ${pr} ${KEtot}" append ${logfile}
print           "${i} ${st} ${phi} ${pr} ${KEtot}" append compress_rate/compress_rate_0.0001/log_compress_rate_0.0001.txt
84 890000 0.699904954889443 2.09270328467081e-05 4.68782450006192e-06
print           "${i} ${st} ${phi} ${pr} ${KEtot}" append ${pressfile}
print           "${i} ${st} ${phi} ${pr} ${KEtot}" append compress_rate/compress_rate_0.0001/press_phi_compress_rate_0.0001.txt
84 890000 0.699904954889443 2.09270328467081e-05 4.68782450006192e-06
next            i
jump            SELF loop_compress
variable        i loop ${ncycle}
variable        i loop 150
# @before(压缩之前的我不关注)
change_box      all x scale ${scale} y scale ${scale} remap units box
change_box      all x scale 0.998 y scale ${scale} remap units box
change_box      all x scale 0.998 y scale 0.998 remap units box
Changing box ...
  orthogonal box = (2.6993006 2.6701403 -0.1) to (31.80123 31.83039 0.1)
  orthogonal box = (2.6993006 2.6993006 -0.1) to (31.80123 31.80123 0.1)
velocity        all set 0.0 0.0 0.0       # 压缩后清零速度，避免把上一轮残余动量带进来
# @after
run             ${compress_loop}        # 每轮给足够松弛时间
run             10000        
Generated 0 of 1 mixed pair_coeff terms from geometric mixing rule
Per MPI rank memory allocation (min/avg/max) = 11.24 | 11.24 | 11.24 Mbytes
   Step        Atoms          Lx             Ly           v_phi          Press          KinEng        c_ke_rot   
    890000         512   29.10193       29.10193       0.702713       13.266974      0              0            
    895000         512   29.10193       29.10193       0.702713       0.0025372244   1.202054e-05   0            
    900000         512   29.10193       29.10193       0.702713       2.0606798e-05  1.0212726e-08  0            
Loop time of 0.119972 on 8 procs for 10000 steps with 512 atoms

Performance: 360085.520 tau/day, 83353.130 timesteps/s, 42.677 Matom-step/s
102.6% CPU use with 8 MPI tasks x 1 OpenMP threads

MPI task timing breakdown:
Section |  min time  |  avg time  |  max time  |%varavg| %total
---------------------------------------------------------------
Pair    | 0.010342   | 0.013486   | 0.016357   |   2.0 | 11.24
Neigh   | 0          | 0          | 0          |   0.0 |  0.00
Comm    | 0.046128   | 0.04781    | 0.049023   |   0.4 | 39.85
Output  | 0.000901   | 0.0011372  | 0.001394   |   0.5 |  0.95
Modify  | 0.012018   | 0.012796   | 0.01377    |   0.5 | 10.67
Other   |            | 0.04474    |            |       | 37.29

Nlocal:             64 ave          68 max          59 min
Histogram: 1 0 0 1 2 0 2 0 1 1
Nghost:         57.875 ave          64 max          49 min
Histogram: 1 1 1 0 0 0 0 2 0 3
Neighs:         186.25 ave         209 max         162 min
Histogram: 2 0 0 1 0 1 2 0 1 1

Total # of neighbors = 1490
Ave neighs/atom = 2.9101562
Neighbor list builds = 0
Dangerous builds = 0
print           "${i} ${st} ${phi} ${pr} ${KEtot}" append ${logfile}
print           "${i} ${st} ${phi} ${pr} ${KEtot}" append compress_rate/compress_rate_0.0001/log_compress_rate_0.0001.txt
85 900000 0.702712996021546 2.060679801711e-05 5.22891570610502e-06
print           "${i} ${st} ${phi} ${pr} ${KEtot}" append ${pressfile}
print           "${i} ${st} ${phi} ${pr} ${KEtot}" append compress_rate/compress_rate_0.0001/press_phi_compress_rate_0.0001.txt
85 900000 0.702712996021546 2.060679801711e-05 5.22891570610502e-06
next            i
jump            SELF loop_compress
variable        i loop ${ncycle}
variable        i loop 150
# @before(压缩之前的我不关注)
change_box      all x scale ${scale} y scale ${scale} remap units box
change_box      all x scale 0.998 y scale ${scale} remap units box
change_box      all x scale 0.998 y scale 0.998 remap units box
Changing box ...
  orthogonal box = (2.7284025 2.6993006 -0.1) to (31.772128 31.80123 0.1)
  orthogonal box = (2.7284025 2.7284025 -0.1) to (31.772128 31.772128 0.1)
velocity        all set 0.0 0.0 0.0       # 压缩后清零速度，避免把上一轮残余动量带进来
# @after
run             ${compress_loop}        # 每轮给足够松弛时间
run             10000        
Generated 0 of 1 mixed pair_coeff terms from geometric mixing rule
Per MPI rank memory allocation (min/avg/max) = 11.24 | 11.24 | 11.24 Mbytes
   Step        Atoms          Lx             Ly           v_phi          Press          KinEng        c_ke_rot   
    900000         512   29.043726      29.043726      0.7055323      13.500075      0              0            
    905000         512   29.043726      29.043726      0.7055323      0.0023534543   1.2697371e-05  0            
    910000         512   29.043726      29.043726      0.7055323      2.5336722e-05  1.0746714e-08  0            
Loop time of 0.0990782 on 8 procs for 10000 steps with 512 atoms

Performance: 436019.005 tau/day, 100930.325 timesteps/s, 51.676 Matom-step/s
92.7% CPU use with 8 MPI tasks x 1 OpenMP threads

MPI task timing breakdown:
Section |  min time  |  avg time  |  max time  |%varavg| %total
---------------------------------------------------------------
Pair    | 0.009365   | 0.012408   | 0.015235   |   1.6 | 12.52
Neigh   | 0          | 0          | 0          |   0.0 |  0.00
Comm    | 0.037418   | 0.040091   | 0.042671   |   0.9 | 40.46
Output  | 0.001438   | 0.0017244  | 0.002019   |   0.5 |  1.74
Modify  | 0.011055   | 0.012179   | 0.01284    |   0.6 | 12.29
Other   |            | 0.03268    |            |       | 32.98

Nlocal:             64 ave          68 max          59 min
Histogram: 1 0 0 1 1 2 1 0 1 1
Nghost:         57.875 ave          64 max          48 min
Histogram: 1 0 2 0 0 0 0 2 0 3
Neighs:        187.375 ave         211 max         162 min
Histogram: 2 0 0 0 1 1 2 0 1 1

Total # of neighbors = 1499
Ave neighs/atom = 2.9277344
Neighbor list builds = 0
Dangerous builds = 0
print           "${i} ${st} ${phi} ${pr} ${KEtot}" append ${logfile}
print           "${i} ${st} ${phi} ${pr} ${KEtot}" append compress_rate/compress_rate_0.0001/log_compress_rate_0.0001.txt
86 910000 0.705532303104752 2.5336722011836e-05 5.50231776983958e-06
print           "${i} ${st} ${phi} ${pr} ${KEtot}" append ${pressfile}
print           "${i} ${st} ${phi} ${pr} ${KEtot}" append compress_rate/compress_rate_0.0001/press_phi_compress_rate_0.0001.txt
86 910000 0.705532303104752 2.5336722011836e-05 5.50231776983958e-06
next            i
jump            SELF loop_compress
variable        i loop ${ncycle}
variable        i loop 150
# @before(压缩之前的我不关注)
change_box      all x scale ${scale} y scale ${scale} remap units box
change_box      all x scale 0.998 y scale ${scale} remap units box
change_box      all x scale 0.998 y scale 0.998 remap units box
Changing box ...
  orthogonal box = (2.7574462 2.7284025 -0.1) to (31.743085 31.772128 0.1)
  orthogonal box = (2.7574462 2.7574462 -0.1) to (31.743085 31.743085 0.1)
velocity        all set 0.0 0.0 0.0       # 压缩后清零速度，避免把上一轮残余动量带进来
# @after
run             ${compress_loop}        # 每轮给足够松弛时间
run             10000        
Generated 0 of 1 mixed pair_coeff terms from geometric mixing rule
Per MPI rank memory allocation (min/avg/max) = 11.24 | 11.24 | 11.24 Mbytes
   Step        Atoms          Lx             Ly           v_phi          Press          KinEng        c_ke_rot   
    910000         512   28.985638      28.985638      0.70836292     13.432795      0              0            
    915000         512   28.985638      28.985638      0.70836292     0.0017149017   1.2455585e-05  0            
    920000         512   28.985638      28.985638      0.70836292     2.9371016e-05  1.059834e-08   0            
Loop time of 0.0987876 on 8 procs for 10000 steps with 512 atoms

Performance: 437301.737 tau/day, 101227.254 timesteps/s, 51.828 Matom-step/s
110.7% CPU use with 8 MPI tasks x 1 OpenMP threads

MPI task timing breakdown:
Section |  min time  |  avg time  |  max time  |%varavg| %total
---------------------------------------------------------------
Pair    | 0.009369   | 0.011881   | 0.014188   |   1.5 | 12.03
Neigh   | 0          | 0          | 0          |   0.0 |  0.00
Comm    | 0.037572   | 0.040359   | 0.04259    |   0.8 | 40.85
Output  | 0.000682   | 0.0008915  | 0.001108   |   0.0 |  0.90
Modify  | 0.011308   | 0.012194   | 0.01297    |   0.5 | 12.34
Other   |            | 0.03346    |            |       | 33.87

Nlocal:             64 ave          68 max          59 min
Histogram: 1 0 0 1 1 2 1 0 1 1
Nghost:         58.125 ave          65 max          48 min
Histogram: 1 0 2 0 0 0 0 2 1 2
Neighs:        188.375 ave         211 max         164 min
Histogram: 2 0 0 1 0 1 2 0 1 1

Total # of neighbors = 1507
Ave neighs/atom = 2.9433594
Neighbor list builds = 0
Dangerous builds = 0
print           "${i} ${st} ${phi} ${pr} ${KEtot}" append ${logfile}
print           "${i} ${st} ${phi} ${pr} ${KEtot}" append compress_rate/compress_rate_0.0001/log_compress_rate_0.0001.txt
87 920000 0.708362921338421 2.93710155984602e-05 5.42635013228768e-06
print           "${i} ${st} ${phi} ${pr} ${KEtot}" append ${pressfile}
print           "${i} ${st} ${phi} ${pr} ${KEtot}" append compress_rate/compress_rate_0.0001/press_phi_compress_rate_0.0001.txt
87 920000 0.708362921338421 2.93710155984602e-05 5.42635013228768e-06
next            i
jump            SELF loop_compress
variable        i loop ${ncycle}
variable        i loop 150
# @before(压缩之前的我不关注)
change_box      all x scale ${scale} y scale ${scale} remap units box
change_box      all x scale 0.998 y scale ${scale} remap units box
change_box      all x scale 0.998 y scale 0.998 remap units box
Changing box ...
  orthogonal box = (2.7864319 2.7574462 -0.1) to (31.714099 31.743085 0.1)
  orthogonal box = (2.7864319 2.7864319 -0.1) to (31.714099 31.714099 0.1)
velocity        all set 0.0 0.0 0.0       # 压缩后清零速度，避免把上一轮残余动量带进来
# @after
run             ${compress_loop}        # 每轮给足够松弛时间
run             10000        
Generated 0 of 1 mixed pair_coeff terms from geometric mixing rule
Per MPI rank memory allocation (min/avg/max) = 11.24 | 11.24 | 11.24 Mbytes
   Step        Atoms          Lx             Ly           v_phi          Press          KinEng        c_ke_rot   
    920000         512   28.927667      28.927667      0.7112049      13.206814      0              0            
    925000         512   28.927667      28.927667      0.7112049      0.0028036646   1.1661504e-05  0            
    930000         512   28.927667      28.927667      0.7112049      2.6228025e-05  9.6686992e-09  0            
Loop time of 0.106576 on 8 procs for 10000 steps with 512 atoms

Performance: 405345.494 tau/day, 93829.975 timesteps/s, 48.041 Matom-step/s
100.8% CPU use with 8 MPI tasks x 1 OpenMP threads

MPI task timing breakdown:
Section |  min time  |  avg time  |  max time  |%varavg| %total
---------------------------------------------------------------
Pair    | 0.010218   | 0.013014   | 0.016609   |   2.0 | 12.21
Neigh   | 0          | 0          | 0          |   0.0 |  0.00
Comm    | 0.039385   | 0.042586   | 0.045759   |   0.9 | 39.96
Output  | 0.000967   | 0.0012289  | 0.001636   |   0.6 |  1.15
Modify  | 0.011512   | 0.012393   | 0.012873   |   0.4 | 11.63
Other   |            | 0.03735    |            |       | 35.05

Nlocal:             64 ave          68 max          59 min
Histogram: 1 0 0 1 2 0 2 0 1 1
Nghost:           58.5 ave          65 max          47 min
Histogram: 1 0 1 0 1 0 0 1 2 2
Neighs:         189.25 ave         213 max         164 min
Histogram: 1 1 0 1 0 2 1 0 1 1

Total # of neighbors = 1514
Ave neighs/atom = 2.9570312
Neighbor list builds = 0
Dangerous builds = 0
print           "${i} ${st} ${phi} ${pr} ${KEtot}" append ${logfile}
print           "${i} ${st} ${phi} ${pr} ${KEtot}" append compress_rate/compress_rate_0.0001/log_compress_rate_0.0001.txt
88 930000 0.711204896103249 2.62280248581639e-05 4.95037398435254e-06
print           "${i} ${st} ${phi} ${pr} ${KEtot}" append ${pressfile}
print           "${i} ${st} ${phi} ${pr} ${KEtot}" append compress_rate/compress_rate_0.0001/press_phi_compress_rate_0.0001.txt
88 930000 0.711204896103249 2.62280248581639e-05 4.95037398435254e-06
next            i
jump            SELF loop_compress
variable        i loop ${ncycle}
variable        i loop 150
# @before(压缩之前的我不关注)
change_box      all x scale ${scale} y scale ${scale} remap units box
change_box      all x scale 0.998 y scale ${scale} remap units box
change_box      all x scale 0.998 y scale 0.998 remap units box
Changing box ...
  orthogonal box = (2.8153595 2.7864319 -0.1) to (31.685171 31.714099 0.1)
  orthogonal box = (2.8153595 2.8153595 -0.1) to (31.685171 31.685171 0.1)
velocity        all set 0.0 0.0 0.0       # 压缩后清零速度，避免把上一轮残余动量带进来
# @after
run             ${compress_loop}        # 每轮给足够松弛时间
run             10000        
Generated 0 of 1 mixed pair_coeff terms from geometric mixing rule
Per MPI rank memory allocation (min/avg/max) = 11.24 | 11.24 | 11.24 Mbytes
   Step        Atoms          Lx             Ly           v_phi          Press          KinEng        c_ke_rot   
    930000         512   28.869812      28.869812      0.71405827     14.669092      0              0            
    935000         512   28.869812      28.869812      0.71405827     0.0034848441   1.7645795e-05  0            
    940000         512   28.869812      28.869812      0.71405827     2.6075434e-05  1.4695569e-08  0            
Loop time of 0.107923 on 8 procs for 10000 steps with 512 atoms

Performance: 400283.998 tau/day, 92658.333 timesteps/s, 47.441 Matom-step/s
97.7% CPU use with 8 MPI tasks x 1 OpenMP threads

MPI task timing breakdown:
Section |  min time  |  avg time  |  max time  |%varavg| %total
---------------------------------------------------------------
Pair    | 0.010653   | 0.013436   | 0.016541   |   1.9 | 12.45
Neigh   | 0          | 0          | 0          |   0.0 |  0.00
Comm    | 0.04134    | 0.043306   | 0.04516    |   0.6 | 40.13
Output  | 0.00075    | 0.00098475 | 0.001344   |   0.0 |  0.91
Modify  | 0.01158    | 0.01244    | 0.012995   |   0.4 | 11.53
Other   |            | 0.03776    |            |       | 34.98

Nlocal:             64 ave          67 max          59 min
Histogram: 1 0 0 1 0 1 1 2 0 2
Nghost:         58.875 ave          65 max          48 min
Histogram: 1 0 1 1 0 0 0 1 2 2
Neighs:         189.25 ave         213 max         163 min
Histogram: 1 1 0 1 0 1 2 0 1 1

Total # of neighbors = 1514
Ave neighs/atom = 2.9570312
Neighbor list builds = 0
Dangerous builds = 0
print           "${i} ${st} ${phi} ${pr} ${KEtot}" append ${logfile}
print           "${i} ${st} ${phi} ${pr} ${KEtot}" append compress_rate/compress_rate_0.0001/log_compress_rate_0.0001.txt
89 940000 0.714058272962005 2.60754336482926e-05 7.52413118039333e-06
print           "${i} ${st} ${phi} ${pr} ${KEtot}" append ${pressfile}
print           "${i} ${st} ${phi} ${pr} ${KEtot}" append compress_rate/compress_rate_0.0001/press_phi_compress_rate_0.0001.txt
89 940000 0.714058272962005 2.60754336482926e-05 7.52413118039333e-06
next            i
jump            SELF loop_compress
variable        i loop ${ncycle}
variable        i loop 150
# @before(压缩之前的我不关注)
change_box      all x scale ${scale} y scale ${scale} remap units box
change_box      all x scale 0.998 y scale ${scale} remap units box
change_box      all x scale 0.998 y scale 0.998 remap units box
Changing box ...
  orthogonal box = (2.8442294 2.8153595 -0.1) to (31.656301 31.685171 0.1)
  orthogonal box = (2.8442294 2.8442294 -0.1) to (31.656301 31.656301 0.1)
velocity        all set 0.0 0.0 0.0       # 压缩后清零速度，避免把上一轮残余动量带进来
# @after
run             ${compress_loop}        # 每轮给足够松弛时间
run             10000        
Generated 0 of 1 mixed pair_coeff terms from geometric mixing rule
Per MPI rank memory allocation (min/avg/max) = 11.24 | 11.24 | 11.24 Mbytes
   Step        Atoms          Lx             Ly           v_phi          Press          KinEng        c_ke_rot   
    940000         512   28.812072      28.812072      0.7169231      14.412458      0              0            
    945000         512   28.812072      28.812072      0.7169231      0.0038620271   1.5557683e-05  0            
    950000         512   28.812072      28.812072      0.7169231      2.9117694e-05  1.2645123e-08  0            
Loop time of 0.104448 on 8 procs for 10000 steps with 512 atoms

Performance: 413602.446 tau/day, 95741.307 timesteps/s, 49.020 Matom-step/s
101.0% CPU use with 8 MPI tasks x 1 OpenMP threads

MPI task timing breakdown:
Section |  min time  |  avg time  |  max time  |%varavg| %total
---------------------------------------------------------------
Pair    | 0.010761   | 0.013253   | 0.017667   |   1.9 | 12.69
Neigh   | 0          | 0          | 0          |   0.0 |  0.00
Comm    | 0.039926   | 0.041848   | 0.044425   |   0.8 | 40.07
Output  | 0.000772   | 0.0012009  | 0.001614   |   0.8 |  1.15
Modify  | 0.01162    | 0.012286   | 0.013055   |   0.4 | 11.76
Other   |            | 0.03586    |            |       | 34.33

Nlocal:             64 ave          67 max          59 min
Histogram: 1 0 0 0 0 2 2 1 0 2
Nghost:             59 ave          66 max          48 min
Histogram: 1 0 1 1 0 0 0 2 1 2
Neighs:        190.125 ave         209 max         164 min
Histogram: 1 0 1 0 1 1 1 1 0 2

Total # of neighbors = 1521
Ave neighs/atom = 2.9707031
Neighbor list builds = 0
Dangerous builds = 0
print           "${i} ${st} ${phi} ${pr} ${KEtot}" append ${logfile}
print           "${i} ${st} ${phi} ${pr} ${KEtot}" append compress_rate/compress_rate_0.0001/log_compress_rate_0.0001.txt
90 950000 0.716923097660256 2.91176935061591e-05 6.47430273344169e-06
print           "${i} ${st} ${phi} ${pr} ${KEtot}" append ${pressfile}
print           "${i} ${st} ${phi} ${pr} ${KEtot}" append compress_rate/compress_rate_0.0001/press_phi_compress_rate_0.0001.txt
90 950000 0.716923097660256 2.91176935061591e-05 6.47430273344169e-06
next            i
jump            SELF loop_compress
variable        i loop ${ncycle}
variable        i loop 150
# @before(压缩之前的我不关注)
change_box      all x scale ${scale} y scale ${scale} remap units box
change_box      all x scale 0.998 y scale ${scale} remap units box
change_box      all x scale 0.998 y scale 0.998 remap units box
Changing box ...
  orthogonal box = (2.8730414 2.8442294 -0.1) to (31.627489 31.656301 0.1)
  orthogonal box = (2.8730414 2.8730414 -0.1) to (31.627489 31.627489 0.1)
velocity        all set 0.0 0.0 0.0       # 压缩后清零速度，避免把上一轮残余动量带进来
# @after
run             ${compress_loop}        # 每轮给足够松弛时间
run             10000        
Generated 0 of 1 mixed pair_coeff terms from geometric mixing rule
Per MPI rank memory allocation (min/avg/max) = 11.24 | 11.24 | 11.24 Mbytes
   Step        Atoms          Lx             Ly           v_phi          Press          KinEng        c_ke_rot   
    950000         512   28.754448      28.754448      0.71979942     15.092629      0              0            
    955000         512   28.754448      28.754448      0.71979942     0.003235385    1.8525575e-05  0            
    960000         512   28.754448      28.754448      0.71979942     3.1032493e-05  1.5294688e-08  0            
Loop time of 0.0932951 on 8 procs for 10000 steps with 512 atoms

Performance: 463046.703 tau/day, 107186.737 timesteps/s, 54.880 Matom-step/s
98.4% CPU use with 8 MPI tasks x 1 OpenMP threads

MPI task timing breakdown:
Section |  min time  |  avg time  |  max time  |%varavg| %total
---------------------------------------------------------------
Pair    | 0.010959   | 0.013554   | 0.016345   |   1.5 | 14.53
Neigh   | 0          | 0          | 0          |   0.0 |  0.00
Comm    | 0.037963   | 0.038499   | 0.038923   |   0.2 | 41.27
Output  | 0.000632   | 0.00082238 | 0.000999   |   0.0 |  0.88
Modify  | 0.011365   | 0.012025   | 0.012836   |   0.5 | 12.89
Other   |            | 0.0284     |            |       | 30.44

Nlocal:             64 ave          67 max          59 min
Histogram: 1 0 0 0 0 1 4 0 0 2
Nghost:           59.5 ave          66 max          51 min
Histogram: 1 0 2 0 0 0 1 2 0 2
Neighs:          191.5 ave         209 max         165 min
Histogram: 1 0 1 0 0 1 2 1 0 2

Total # of neighbors = 1532
Ave neighs/atom = 2.9921875
Neighbor list builds = 0
Dangerous builds = 0
print           "${i} ${st} ${phi} ${pr} ${KEtot}" append ${logfile}
print           "${i} ${st} ${phi} ${pr} ${KEtot}" append compress_rate/compress_rate_0.0001/log_compress_rate_0.0001.txt
91 960000 0.7197994161271 3.10324927556711e-05 7.83088034814428e-06
print           "${i} ${st} ${phi} ${pr} ${KEtot}" append ${pressfile}
print           "${i} ${st} ${phi} ${pr} ${KEtot}" append compress_rate/compress_rate_0.0001/press_phi_compress_rate_0.0001.txt
91 960000 0.7197994161271 3.10324927556711e-05 7.83088034814428e-06
next            i
jump            SELF loop_compress
variable        i loop ${ncycle}
variable        i loop 150
# @before(压缩之前的我不关注)
change_box      all x scale ${scale} y scale ${scale} remap units box
change_box      all x scale 0.998 y scale ${scale} remap units box
change_box      all x scale 0.998 y scale 0.998 remap units box
Changing box ...
  orthogonal box = (2.9017959 2.8730414 -0.1) to (31.598735 31.627489 0.1)
  orthogonal box = (2.9017959 2.9017959 -0.1) to (31.598735 31.598735 0.1)
velocity        all set 0.0 0.0 0.0       # 压缩后清零速度，避免把上一轮残余动量带进来
# @after
run             ${compress_loop}        # 每轮给足够松弛时间
run             10000        
Generated 0 of 1 mixed pair_coeff terms from geometric mixing rule
Per MPI rank memory allocation (min/avg/max) = 11.24 | 11.24 | 11.24 Mbytes
   Step        Atoms          Lx             Ly           v_phi          Press          KinEng        c_ke_rot   
    960000         512   28.696939      28.696939      0.72268727     15.423152      0              0            
    965000         512   28.696939      28.696939      0.72268727     0.0037836531   1.8979508e-05  0            
    970000         512   28.696939      28.696939      0.72268727     3.6667765e-05  1.5174264e-08  0            
Loop time of 0.116517 on 8 procs for 10000 steps with 512 atoms

Performance: 370760.155 tau/day, 85824.110 timesteps/s, 43.942 Matom-step/s
93.9% CPU use with 8 MPI tasks x 1 OpenMP threads

MPI task timing breakdown:
Section |  min time  |  avg time  |  max time  |%varavg| %total
---------------------------------------------------------------
Pair    | 0.012056   | 0.015658   | 0.020008   |   1.9 | 13.44
Neigh   | 0          | 0          | 0          |   0.0 |  0.00
Comm    | 0.044253   | 0.045546   | 0.046718   |   0.3 | 39.09
Output  | 0.000984   | 0.0012165  | 0.001461   |   0.4 |  1.04
Modify  | 0.011983   | 0.013019   | 0.013997   |   0.6 | 11.17
Other   |            | 0.04108    |            |       | 35.25

Nlocal:             64 ave          67 max          59 min
Histogram: 1 0 0 0 0 1 4 0 0 2
Nghost:           59.5 ave          66 max          51 min
Histogram: 1 0 2 0 0 0 1 2 0 2
Neighs:            193 ave         212 max         166 min
Histogram: 1 0 1 0 0 2 1 1 0 2

Total # of neighbors = 1544
Ave neighs/atom = 3.015625
Neighbor list builds = 0
Dangerous builds = 0
print           "${i} ${st} ${phi} ${pr} ${KEtot}" append ${logfile}
print           "${i} ${st} ${phi} ${pr} ${KEtot}" append compress_rate/compress_rate_0.0001/log_compress_rate_0.0001.txt
92 970000 0.722687274475905 3.66677653194845e-05 7.76922334699639e-06
print           "${i} ${st} ${phi} ${pr} ${KEtot}" append ${pressfile}
print           "${i} ${st} ${phi} ${pr} ${KEtot}" append compress_rate/compress_rate_0.0001/press_phi_compress_rate_0.0001.txt
92 970000 0.722687274475905 3.66677653194845e-05 7.76922334699639e-06
next            i
jump            SELF loop_compress
variable        i loop ${ncycle}
variable        i loop 150
# @before(压缩之前的我不关注)
change_box      all x scale ${scale} y scale ${scale} remap units box
change_box      all x scale 0.998 y scale ${scale} remap units box
change_box      all x scale 0.998 y scale 0.998 remap units box
Changing box ...
  orthogonal box = (2.9304928 2.9017959 -0.1) to (31.570038 31.598735 0.1)
  orthogonal box = (2.9304928 2.9304928 -0.1) to (31.570038 31.570038 0.1)
velocity        all set 0.0 0.0 0.0       # 压缩后清零速度，避免把上一轮残余动量带进来
# @after
run             ${compress_loop}        # 每轮给足够松弛时间
run             10000        
Generated 0 of 1 mixed pair_coeff terms from geometric mixing rule
Per MPI rank memory allocation (min/avg/max) = 11.24 | 11.24 | 11.24 Mbytes
   Step        Atoms          Lx             Ly           v_phi          Press          KinEng        c_ke_rot   
    970000         512   28.639545      28.639545      0.72558672     16.695763      0              0            
    975000         512   28.639545      28.639545      0.72558672     0.0044332289   1.9929603e-05  0            
    980000         512   28.639545      28.639545      0.72558672     7.105632e-05   1.6004017e-08  0            
Loop time of 0.10304 on 8 procs for 10000 steps with 512 atoms

Performance: 419253.133 tau/day, 97049.336 timesteps/s, 49.689 Matom-step/s
106.1% CPU use with 8 MPI tasks x 1 OpenMP threads

MPI task timing breakdown:
Section |  min time  |  avg time  |  max time  |%varavg| %total
---------------------------------------------------------------
Pair    | 0.012262   | 0.014866   | 0.018015   |   1.6 | 14.43
Neigh   | 0          | 0          | 0          |   0.0 |  0.00
Comm    | 0.038971   | 0.041332   | 0.043581   |   0.8 | 40.11
Output  | 0.00073    | 0.00088587 | 0.001057   |   0.0 |  0.86
Modify  | 0.011386   | 0.01244    | 0.013386   |   0.6 | 12.07
Other   |            | 0.03352    |            |       | 32.53

Nlocal:             64 ave          67 max          59 min
Histogram: 1 0 0 0 0 1 4 0 0 2
Nghost:         59.625 ave          65 max          52 min
Histogram: 1 1 0 1 0 0 1 2 0 2
Neighs:        193.125 ave         211 max         168 min
Histogram: 1 0 1 0 0 2 1 1 0 2

Total # of neighbors = 1545
Ave neighs/atom = 3.0175781
Neighbor list builds = 0
Dangerous builds = 0
print           "${i} ${st} ${phi} ${pr} ${KEtot}" append ${logfile}
print           "${i} ${st} ${phi} ${pr} ${KEtot}" append compress_rate/compress_rate_0.0001/log_compress_rate_0.0001.txt
93 980000 0.72558671900505 7.10563196524805e-05 8.19405653079104e-06
print           "${i} ${st} ${phi} ${pr} ${KEtot}" append ${pressfile}
print           "${i} ${st} ${phi} ${pr} ${KEtot}" append compress_rate/compress_rate_0.0001/press_phi_compress_rate_0.0001.txt
93 980000 0.72558671900505 7.10563196524805e-05 8.19405653079104e-06
next            i
jump            SELF loop_compress
variable        i loop ${ncycle}
variable        i loop 150
# @before(压缩之前的我不关注)
change_box      all x scale ${scale} y scale ${scale} remap units box
change_box      all x scale 0.998 y scale ${scale} remap units box
change_box      all x scale 0.998 y scale 0.998 remap units box
Changing box ...
  orthogonal box = (2.9591324 2.9304928 -0.1) to (31.541398 31.570038 0.1)
  orthogonal box = (2.9591324 2.9591324 -0.1) to (31.541398 31.541398 0.1)
velocity        all set 0.0 0.0 0.0       # 压缩后清零速度，避免把上一轮残余动量带进来
# @after
run             ${compress_loop}        # 每轮给足够松弛时间
run             10000        
Generated 0 of 1 mixed pair_coeff terms from geometric mixing rule
Per MPI rank memory allocation (min/avg/max) = 11.24 | 11.24 | 11.24 Mbytes
   Step        Atoms          Lx             Ly           v_phi          Press          KinEng        c_ke_rot   
    980000         512   28.582266      28.582266      0.7284978      16.383954      0              0            
    985000         512   28.582266      28.582266      0.7284978      0.0047181281   1.8283979e-05  0            
    990000         512   28.582266      28.582266      0.7284978      3.7052328e-05  1.4591867e-08  0            
Loop time of 0.101708 on 8 procs for 10000 steps with 512 atoms

Performance: 424745.349 tau/day, 98320.683 timesteps/s, 50.340 Matom-step/s
107.5% CPU use with 8 MPI tasks x 1 OpenMP threads

MPI task timing breakdown:
Section |  min time  |  avg time  |  max time  |%varavg| %total
---------------------------------------------------------------
Pair    | 0.011286   | 0.014484   | 0.017742   |   1.6 | 14.24
Neigh   | 0          | 0          | 0          |   0.0 |  0.00
Comm    | 0.038583   | 0.040189   | 0.041302   |   0.4 | 39.51
Output  | 0.000638   | 0.000898   | 0.001099   |   0.0 |  0.88
Modify  | 0.011032   | 0.012065   | 0.013241   |   0.6 | 11.86
Other   |            | 0.03407    |            |       | 33.50

Nlocal:             64 ave          67 max          59 min
Histogram: 1 0 0 0 0 2 2 1 0 2
Nghost:         59.875 ave          65 max          54 min
Histogram: 3 0 0 0 0 0 0 3 0 2
Neighs:        194.375 ave         212 max         169 min
Histogram: 1 1 0 0 1 0 2 1 0 2

Total # of neighbors = 1555
Ave neighs/atom = 3.0371094
Neighbor list builds = 0
Dangerous builds = 0
print           "${i} ${st} ${phi} ${pr} ${KEtot}" append ${logfile}
print           "${i} ${st} ${phi} ${pr} ${KEtot}" append compress_rate/compress_rate_0.0001/log_compress_rate_0.0001.txt
94 990000 0.728497796198659 3.70523281345221e-05 7.47103594900153e-06
print           "${i} ${st} ${phi} ${pr} ${KEtot}" append ${pressfile}
print           "${i} ${st} ${phi} ${pr} ${KEtot}" append compress_rate/compress_rate_0.0001/press_phi_compress_rate_0.0001.txt
94 990000 0.728497796198659 3.70523281345221e-05 7.47103594900153e-06
next            i
jump            SELF loop_compress
variable        i loop ${ncycle}
variable        i loop 150
# @before(压缩之前的我不关注)
change_box      all x scale ${scale} y scale ${scale} remap units box
change_box      all x scale 0.998 y scale ${scale} remap units box
change_box      all x scale 0.998 y scale 0.998 remap units box
Changing box ...
  orthogonal box = (2.9877146 2.9591324 -0.1) to (31.512816 31.541398 0.1)
  orthogonal box = (2.9877146 2.9877146 -0.1) to (31.512816 31.512816 0.1)
velocity        all set 0.0 0.0 0.0       # 压缩后清零速度，避免把上一轮残余动量带进来
# @after
run             ${compress_loop}        # 每轮给足够松弛时间
run             10000        
Generated 0 of 1 mixed pair_coeff terms from geometric mixing rule
Per MPI rank memory allocation (min/avg/max) = 11.24 | 11.24 | 11.24 Mbytes
   Step        Atoms          Lx             Ly           v_phi          Press          KinEng        c_ke_rot   
    990000         512   28.525102      28.525102      0.73142055     17.162409      0              0            
    995000         512   28.525102      28.525102      0.73142055     0.0056638491   1.7657457e-05  0            
   1000000         512   28.525102      28.525102      0.73142055     5.3015217e-05  1.4155007e-08  0            
Loop time of 0.101779 on 8 procs for 10000 steps with 512 atoms

Performance: 424446.966 tau/day, 98251.613 timesteps/s, 50.305 Matom-step/s
90.2% CPU use with 8 MPI tasks x 1 OpenMP threads

MPI task timing breakdown:
Section |  min time  |  avg time  |  max time  |%varavg| %total
---------------------------------------------------------------
Pair    | 0.011993   | 0.014955   | 0.017337   |   1.4 | 14.69
Neigh   | 0          | 0          | 0          |   0.0 |  0.00
Comm    | 0.038388   | 0.040766   | 0.04382    |   0.8 | 40.05
Output  | 0.000764   | 0.0009415  | 0.001129   |   0.0 |  0.93
Modify  | 0.011509   | 0.012171   | 0.012977   |   0.4 | 11.96
Other   |            | 0.03295    |            |       | 32.37

Nlocal:             64 ave          67 max          60 min
Histogram: 1 0 1 0 1 2 0 1 0 2
Nghost:             60 ave          66 max          54 min
Histogram: 3 0 0 0 0 1 2 0 0 2
Neighs:        195.375 ave         214 max         173 min
Histogram: 2 0 0 0 1 1 1 1 0 2

Total # of neighbors = 1563
Ave neighs/atom = 3.0527344
Neighbor list builds = 0
Dangerous builds = 0
print           "${i} ${st} ${phi} ${pr} ${KEtot}" append ${logfile}
print           "${i} ${st} ${phi} ${pr} ${KEtot}" append compress_rate/compress_rate_0.0001/log_compress_rate_0.0001.txt
95 1000000 0.731420552727358 5.30152165131879e-05 7.24736343539746e-06
print           "${i} ${st} ${phi} ${pr} ${KEtot}" append ${pressfile}
print           "${i} ${st} ${phi} ${pr} ${KEtot}" append compress_rate/compress_rate_0.0001/press_phi_compress_rate_0.0001.txt
95 1000000 0.731420552727358 5.30152165131879e-05 7.24736343539746e-06
next            i
jump            SELF loop_compress
variable        i loop ${ncycle}
variable        i loop 150
# @before(压缩之前的我不关注)
change_box      all x scale ${scale} y scale ${scale} remap units box
change_box      all x scale 0.998 y scale ${scale} remap units box
change_box      all x scale 0.998 y scale 0.998 remap units box
Changing box ...
  orthogonal box = (3.0162397 2.9877146 -0.1) to (31.484291 31.512816 0.1)
  orthogonal box = (3.0162397 3.0162397 -0.1) to (31.484291 31.484291 0.1)
velocity        all set 0.0 0.0 0.0       # 压缩后清零速度，避免把上一轮残余动量带进来
# @after
run             ${compress_loop}        # 每轮给足够松弛时间
run             10000        
Generated 0 of 1 mixed pair_coeff terms from geometric mixing rule
Per MPI rank memory allocation (min/avg/max) = 11.24 | 11.24 | 11.24 Mbytes
   Step        Atoms          Lx             Ly           v_phi          Press          KinEng        c_ke_rot   
   1000000         512   28.468051      28.468051      0.73435504     17.714893      0              0            
   1005000         512   28.468051      28.468051      0.73435504     0.0057293079   1.8920664e-05  0            
   1010000         512   28.468051      28.468051      0.73435504     4.9049332e-05  1.4559575e-08  0            
Loop time of 0.101687 on 8 procs for 10000 steps with 512 atoms

Performance: 424831.499 tau/day, 98340.625 timesteps/s, 50.350 Matom-step/s
103.7% CPU use with 8 MPI tasks x 1 OpenMP threads

MPI task timing breakdown:
Section |  min time  |  avg time  |  max time  |%varavg| %total
---------------------------------------------------------------
Pair    | 0.010792   | 0.015117   | 0.018003   |   2.0 | 14.87
Neigh   | 0          | 0          | 0          |   0.0 |  0.00
Comm    | 0.039131   | 0.040202   | 0.041101   |   0.3 | 39.54
Output  | 0.000809   | 0.0010315  | 0.001233   |   0.4 |  1.01
Modify  | 0.010888   | 0.011935   | 0.012485   |   0.5 | 11.74
Other   |            | 0.0334     |            |       | 32.85

Nlocal:             64 ave          67 max          60 min
Histogram: 1 0 1 0 1 2 0 1 0 2
Nghost:             60 ave          66 max          54 min
Histogram: 3 0 0 0 0 1 2 0 0 2
Neighs:            196 ave         213 max         176 min
Histogram: 2 0 0 0 1 1 1 1 0 2

Total # of neighbors = 1568
Ave neighs/atom = 3.0625
Neighbor list builds = 0
Dangerous builds = 0
print           "${i} ${st} ${phi} ${pr} ${KEtot}" append ${logfile}
print           "${i} ${st} ${phi} ${pr} ${KEtot}" append compress_rate/compress_rate_0.0001/log_compress_rate_0.0001.txt
96 1010000 0.734355035449012 4.90493315943706e-05 7.45450234366121e-06
print           "${i} ${st} ${phi} ${pr} ${KEtot}" append ${pressfile}
print           "${i} ${st} ${phi} ${pr} ${KEtot}" append compress_rate/compress_rate_0.0001/press_phi_compress_rate_0.0001.txt
96 1010000 0.734355035449012 4.90493315943706e-05 7.45450234366121e-06
next            i
jump            SELF loop_compress
variable        i loop ${ncycle}
variable        i loop 150
# @before(压缩之前的我不关注)
change_box      all x scale ${scale} y scale ${scale} remap units box
change_box      all x scale 0.998 y scale ${scale} remap units box
change_box      all x scale 0.998 y scale 0.998 remap units box
Changing box ...
  orthogonal box = (3.0447078 3.0162397 -0.1) to (31.455823 31.484291 0.1)
  orthogonal box = (3.0447078 3.0447078 -0.1) to (31.455823 31.455823 0.1)
velocity        all set 0.0 0.0 0.0       # 压缩后清零速度，避免把上一轮残余动量带进来
# @after
run             ${compress_loop}        # 每轮给足够松弛时间
run             10000        
Generated 0 of 1 mixed pair_coeff terms from geometric mixing rule
Per MPI rank memory allocation (min/avg/max) = 11.24 | 11.24 | 11.24 Mbytes
   Step        Atoms          Lx             Ly           v_phi          Press          KinEng        c_ke_rot   
   1010000         512   28.411115      28.411115      0.73730129     18.580175      0              0            
   1015000         512   28.411115      28.411115      0.73730129     0.0059612258   2.2421945e-05  0            
   1020000         512   28.411115      28.411115      0.73730129     4.9084608e-05  1.7207233e-08  0            
Loop time of 0.0945155 on 8 procs for 10000 steps with 512 atoms

Performance: 457067.888 tau/day, 105802.752 timesteps/s, 54.171 Matom-step/s
97.1% CPU use with 8 MPI tasks x 1 OpenMP threads

MPI task timing breakdown:
Section |  min time  |  avg time  |  max time  |%varavg| %total
---------------------------------------------------------------
Pair    | 0.010178   | 0.015331   | 0.01967    |   2.0 | 16.22
Neigh   | 0          | 0          | 0          |   0.0 |  0.00
Comm    | 0.035857   | 0.037349   | 0.038508   |   0.4 | 39.52
Output  | 0.000656   | 0.00081175 | 0.000973   |   0.0 |  0.86
Modify  | 0.010732   | 0.011849   | 0.012789   |   0.6 | 12.54
Other   |            | 0.02917    |            |       | 30.87

Nlocal:             64 ave          67 max          60 min
Histogram: 1 0 1 0 1 2 0 1 0 2
Nghost:             60 ave          66 max          54 min
Histogram: 3 0 0 0 0 1 2 0 0 2
Neighs:        197.375 ave         213 max         179 min
Histogram: 2 0 0 1 0 0 2 1 0 2

Total # of neighbors = 1579
Ave neighs/atom = 3.0839844
Neighbor list builds = 0
Dangerous builds = 0
print           "${i} ${st} ${phi} ${pr} ${KEtot}" append ${logfile}
print           "${i} ${st} ${phi} ${pr} ${KEtot}" append compress_rate/compress_rate_0.0001/log_compress_rate_0.0001.txt
97 1020000 0.737301291409484 4.90846082764249e-05 8.81010343357191e-06
print           "${i} ${st} ${phi} ${pr} ${KEtot}" append ${pressfile}
print           "${i} ${st} ${phi} ${pr} ${KEtot}" append compress_rate/compress_rate_0.0001/press_phi_compress_rate_0.0001.txt
97 1020000 0.737301291409484 4.90846082764249e-05 8.81010343357191e-06
next            i
jump            SELF loop_compress
variable        i loop ${ncycle}
variable        i loop 150
# @before(压缩之前的我不关注)
change_box      all x scale ${scale} y scale ${scale} remap units box
change_box      all x scale 0.998 y scale ${scale} remap units box
change_box      all x scale 0.998 y scale 0.998 remap units box
Changing box ...
  orthogonal box = (3.0731189 3.0447078 -0.1) to (31.427412 31.455823 0.1)
  orthogonal box = (3.0731189 3.0731189 -0.1) to (31.427412 31.427412 0.1)
velocity        all set 0.0 0.0 0.0       # 压缩后清零速度，避免把上一轮残余动量带进来
# @after
run             ${compress_loop}        # 每轮给足够松弛时间
run             10000        
Generated 0 of 1 mixed pair_coeff terms from geometric mixing rule
Per MPI rank memory allocation (min/avg/max) = 11.24 | 11.24 | 11.24 Mbytes
   Step        Atoms          Lx             Ly           v_phi          Press          KinEng        c_ke_rot   
   1020000         512   28.354293      28.354293      0.74025937     18.999801      0              0            
   1025000         512   28.354293      28.354293      0.74025937     0.0053021733   2.3312911e-05  0            
   1030000         512   28.354293      28.354293      0.74025937     6.9201924e-05  1.805609e-08   0            
Loop time of 0.100475 on 8 procs for 10000 steps with 512 atoms

Performance: 429956.631 tau/day, 99526.998 timesteps/s, 50.958 Matom-step/s
106.9% CPU use with 8 MPI tasks x 1 OpenMP threads

MPI task timing breakdown:
Section |  min time  |  avg time  |  max time  |%varavg| %total
---------------------------------------------------------------
Pair    | 0.012245   | 0.015974   | 0.019239   |   1.8 | 15.90
Neigh   | 0          | 0          | 0          |   0.0 |  0.00
Comm    | 0.036851   | 0.039049   | 0.041204   |   0.7 | 38.86
Output  | 0.000811   | 0.0010086  | 0.001238   |   0.4 |  1.00
Modify  | 0.011314   | 0.012018   | 0.012706   |   0.5 | 11.96
Other   |            | 0.03243    |            |       | 32.27

Nlocal:             64 ave          67 max          60 min
Histogram: 1 0 1 0 1 2 0 1 0 2
Nghost:         60.125 ave          66 max          55 min
Histogram: 3 0 0 0 0 1 2 0 0 2
Neighs:         197.75 ave         214 max         179 min
Histogram: 2 0 0 1 0 0 2 1 0 2

Total # of neighbors = 1582
Ave neighs/atom = 3.0898438
Neighbor list builds = 0
Dangerous builds = 0
print           "${i} ${st} ${phi} ${pr} ${KEtot}" append ${logfile}
print           "${i} ${st} ${phi} ${pr} ${KEtot}" append compress_rate/compress_rate_0.0001/log_compress_rate_0.0001.txt
98 1030000 0.740259367843386 6.92019237179456e-05 9.24471823750967e-06
print           "${i} ${st} ${phi} ${pr} ${KEtot}" append ${pressfile}
print           "${i} ${st} ${phi} ${pr} ${KEtot}" append compress_rate/compress_rate_0.0001/press_phi_compress_rate_0.0001.txt
98 1030000 0.740259367843386 6.92019237179456e-05 9.24471823750967e-06
next            i
jump            SELF loop_compress
variable        i loop ${ncycle}
variable        i loop 150
# @before(压缩之前的我不关注)
change_box      all x scale ${scale} y scale ${scale} remap units box
change_box      all x scale 0.998 y scale ${scale} remap units box
change_box      all x scale 0.998 y scale 0.998 remap units box
Changing box ...
  orthogonal box = (3.1014732 3.0731189 -0.1) to (31.399058 31.427412 0.1)
  orthogonal box = (3.1014732 3.1014732 -0.1) to (31.399058 31.399058 0.1)
velocity        all set 0.0 0.0 0.0       # 压缩后清零速度，避免把上一轮残余动量带进来
# @after
run             ${compress_loop}        # 每轮给足够松弛时间
run             10000        
Generated 0 of 1 mixed pair_coeff terms from geometric mixing rule
Per MPI rank memory allocation (min/avg/max) = 11.24 | 11.24 | 11.24 Mbytes
   Step        Atoms          Lx             Ly           v_phi          Press          KinEng        c_ke_rot   
   1030000         512   28.297584      28.297584      0.74322931     19.325288      0              0            
   1035000         512   28.297584      28.297584      0.74322931     0.0087956124   2.2092915e-05  0            
   1040000         512   28.297584      28.297584      0.74322931     8.7404358e-05  1.6799555e-08  0            
Loop time of 0.0972619 on 8 procs for 10000 steps with 512 atoms

Performance: 444161.703 tau/day, 102815.209 timesteps/s, 52.641 Matom-step/s
96.4% CPU use with 8 MPI tasks x 1 OpenMP threads

MPI task timing breakdown:
Section |  min time  |  avg time  |  max time  |%varavg| %total
---------------------------------------------------------------
Pair    | 0.012213   | 0.015901   | 0.019634   |   1.8 | 16.35
Neigh   | 0          | 0          | 0          |   0.0 |  0.00
Comm    | 0.034886   | 0.038286   | 0.041017   |   1.0 | 39.36
Output  | 0.000705   | 0.00097225 | 0.001242   |   0.0 |  1.00
Modify  | 0.010645   | 0.011676   | 0.012609   |   0.6 | 12.00
Other   |            | 0.03043    |            |       | 31.28

Nlocal:             64 ave          68 max          60 min
Histogram: 1 0 1 1 0 2 1 1 0 1
Nghost:         60.375 ave          66 max          55 min
Histogram: 2 1 0 0 0 1 2 0 1 1
Neighs:          198.5 ave         219 max         179 min
Histogram: 2 0 1 0 1 2 0 0 0 2

Total # of neighbors = 1588
Ave neighs/atom = 3.1015625
Neighbor list builds = 0
Dangerous builds = 0
print           "${i} ${st} ${phi} ${pr} ${KEtot}" append ${logfile}
print           "${i} ${st} ${phi} ${pr} ${KEtot}" append compress_rate/compress_rate_0.0001/log_compress_rate_0.0001.txt
99 1040000 0.743229312174837 8.74043575728475e-05 8.60137193637991e-06
print           "${i} ${st} ${phi} ${pr} ${KEtot}" append ${pressfile}
print           "${i} ${st} ${phi} ${pr} ${KEtot}" append compress_rate/compress_rate_0.0001/press_phi_compress_rate_0.0001.txt
99 1040000 0.743229312174837 8.74043575728475e-05 8.60137193637991e-06
next            i
jump            SELF loop_compress
variable        i loop ${ncycle}
variable        i loop 150
# @before(压缩之前的我不关注)
change_box      all x scale ${scale} y scale ${scale} remap units box
change_box      all x scale 0.998 y scale ${scale} remap units box
change_box      all x scale 0.998 y scale 0.998 remap units box
Changing box ...
  orthogonal box = (3.1297708 3.1014732 -0.1) to (31.37076 31.399058 0.1)
  orthogonal box = (3.1297708 3.1297708 -0.1) to (31.37076 31.37076 0.1)
velocity        all set 0.0 0.0 0.0       # 压缩后清零速度，避免把上一轮残余动量带进来
# @after
run             ${compress_loop}        # 每轮给足够松弛时间
run             10000        
Generated 0 of 1 mixed pair_coeff terms from geometric mixing rule
Per MPI rank memory allocation (min/avg/max) = 11.24 | 11.24 | 11.24 Mbytes
   Step        Atoms          Lx             Ly           v_phi          Press          KinEng        c_ke_rot   
   1040000         512   28.240989      28.240989      0.74621117     19.429416      0              0            
   1045000         512   28.240989      28.240989      0.74621117     0.0066822735   2.3726531e-05  0            
   1050000         512   28.240989      28.240989      0.74621117     5.8113134e-05  1.8676758e-08  0            
Loop time of 0.115002 on 8 procs for 10000 steps with 512 atoms

Performance: 375646.049 tau/day, 86955.104 timesteps/s, 44.521 Matom-step/s
95.1% CPU use with 8 MPI tasks x 1 OpenMP threads

MPI task timing breakdown:
Section |  min time  |  avg time  |  max time  |%varavg| %total
---------------------------------------------------------------
Pair    | 0.013036   | 0.017246   | 0.021743   |   2.1 | 15.00
Neigh   | 0          | 0          | 0          |   0.0 |  0.00
Comm    | 0.041033   | 0.044235   | 0.046651   |   0.8 | 38.46
Output  | 0.000971   | 0.0011652  | 0.001354   |   0.4 |  1.01
Modify  | 0.011309   | 0.01243    | 0.013239   |   0.6 | 10.81
Other   |            | 0.03992    |            |       | 34.72

Nlocal:             64 ave          69 max          60 min
Histogram: 1 1 0 1 2 1 1 0 0 1
Nghost:         60.625 ave          67 max          56 min
Histogram: 3 0 0 1 0 2 0 1 0 1
Neighs:         198.25 ave         221 max         180 min
Histogram: 2 0 1 0 3 0 0 0 0 2

Total # of neighbors = 1586
Ave neighs/atom = 3.0976562
Neighbor list builds = 0
Dangerous builds = 0
print           "${i} ${st} ${phi} ${pr} ${KEtot}" append ${logfile}
print           "${i} ${st} ${phi} ${pr} ${KEtot}" append compress_rate/compress_rate_0.0001/log_compress_rate_0.0001.txt
100 1050000 0.746211172018222 5.81131339567904e-05 9.56250026501082e-06
print           "${i} ${st} ${phi} ${pr} ${KEtot}" append ${pressfile}
print           "${i} ${st} ${phi} ${pr} ${KEtot}" append compress_rate/compress_rate_0.0001/press_phi_compress_rate_0.0001.txt
100 1050000 0.746211172018222 5.81131339567904e-05 9.56250026501082e-06
next            i
jump            SELF loop_compress
variable        i loop ${ncycle}
variable        i loop 150
# @before(压缩之前的我不关注)
change_box      all x scale ${scale} y scale ${scale} remap units box
change_box      all x scale 0.998 y scale ${scale} remap units box
change_box      all x scale 0.998 y scale 0.998 remap units box
Changing box ...
  orthogonal box = (3.1580118 3.1297708 -0.1) to (31.342519 31.37076 0.1)
  orthogonal box = (3.1580118 3.1580118 -0.1) to (31.342519 31.342519 0.1)
velocity        all set 0.0 0.0 0.0       # 压缩后清零速度，避免把上一轮残余动量带进来
# @after
run             ${compress_loop}        # 每轮给足够松弛时间
run             10000        
Generated 0 of 1 mixed pair_coeff terms from geometric mixing rule
Per MPI rank memory allocation (min/avg/max) = 11.24 | 11.24 | 11.24 Mbytes
   Step        Atoms          Lx             Ly           v_phi          Press          KinEng        c_ke_rot   
   1050000         512   28.184507      28.184507      0.749205       19.733233      0              0            
   1055000         512   28.184507      28.184507      0.749205       0.0060948123   2.1881979e-05  0            
   1060000         512   28.184507      28.184507      0.749205       5.067269e-05   1.7130596e-08  0            
Loop time of 0.110673 on 8 procs for 10000 steps with 512 atoms

Performance: 390340.871 tau/day, 90356.683 timesteps/s, 46.263 Matom-step/s
98.8% CPU use with 8 MPI tasks x 1 OpenMP threads

MPI task timing breakdown:
Section |  min time  |  avg time  |  max time  |%varavg| %total
---------------------------------------------------------------
Pair    | 0.013544   | 0.016625   | 0.02022    |   1.7 | 15.02
Neigh   | 0          | 0          | 0          |   0.0 |  0.00
Comm    | 0.041642   | 0.043107   | 0.044892   |   0.5 | 38.95
Output  | 0.000908   | 0.0010905  | 0.001329   |   0.4 |  0.99
Modify  | 0.011139   | 0.012423   | 0.013645   |   0.7 | 11.23
Other   |            | 0.03743    |            |       | 33.82

Nlocal:             64 ave          69 max          60 min
Histogram: 1 1 0 1 2 1 1 0 0 1
Nghost:         60.625 ave          66 max          56 min
Histogram: 1 1 1 0 1 0 1 2 0 1
Neighs:        199.625 ave         224 max         180 min
Histogram: 2 0 1 0 3 0 0 0 0 2

Total # of neighbors = 1597
Ave neighs/atom = 3.1191406
Neighbor list builds = 0
Dangerous builds = 0
print           "${i} ${st} ${phi} ${pr} ${KEtot}" append ${logfile}
print           "${i} ${st} ${phi} ${pr} ${KEtot}" append compress_rate/compress_rate_0.0001/log_compress_rate_0.0001.txt
101 1060000 0.749204995178957 5.06726899805509e-05 8.77086538186458e-06
print           "${i} ${st} ${phi} ${pr} ${KEtot}" append ${pressfile}
print           "${i} ${st} ${phi} ${pr} ${KEtot}" append compress_rate/compress_rate_0.0001/press_phi_compress_rate_0.0001.txt
101 1060000 0.749204995178957 5.06726899805509e-05 8.77086538186458e-06
next            i
jump            SELF loop_compress
variable        i loop ${ncycle}
variable        i loop 150
# @before(压缩之前的我不关注)
change_box      all x scale ${scale} y scale ${scale} remap units box
change_box      all x scale 0.998 y scale ${scale} remap units box
change_box      all x scale 0.998 y scale 0.998 remap units box
Changing box ...
  orthogonal box = (3.1861963 3.1580118 -0.1) to (31.314335 31.342519 0.1)
  orthogonal box = (3.1861963 3.1861963 -0.1) to (31.314335 31.314335 0.1)
velocity        all set 0.0 0.0 0.0       # 压缩后清零速度，避免把上一轮残余动量带进来
# @after
run             ${compress_loop}        # 每轮给足够松弛时间
run             10000        
Generated 0 of 1 mixed pair_coeff terms from geometric mixing rule
Per MPI rank memory allocation (min/avg/max) = 11.24 | 11.24 | 11.24 Mbytes
   Step        Atoms          Lx             Ly           v_phi          Press          KinEng        c_ke_rot   
   1060000         512   28.128138      28.128138      0.75221083     19.782879      0              0            
   1065000         512   28.128138      28.128138      0.75221083     0.0079866004   2.3798149e-05  0            
   1070000         512   28.128138      28.128138      0.75221083     7.0082323e-05  1.7474682e-08  0            
Loop time of 0.108355 on 8 procs for 10000 steps with 512 atoms

Performance: 398688.113 tau/day, 92288.915 timesteps/s, 47.252 Matom-step/s
97.3% CPU use with 8 MPI tasks x 1 OpenMP threads

MPI task timing breakdown:
Section |  min time  |  avg time  |  max time  |%varavg| %total
---------------------------------------------------------------
Pair    | 0.013332   | 0.01713    | 0.022369   |   2.2 | 15.81
Neigh   | 0          | 0          | 0          |   0.0 |  0.00
Comm    | 0.040717   | 0.042436   | 0.043919   |   0.6 | 39.16
Output  | 0.000822   | 0.00097412 | 0.00113    |   0.0 |  0.90
Modify  | 0.011235   | 0.012347   | 0.013113   |   0.5 | 11.40
Other   |            | 0.03547    |            |       | 32.73

Nlocal:             64 ave          69 max          60 min
Histogram: 1 1 0 1 2 1 1 0 0 1
Nghost:           60.5 ave          66 max          56 min
Histogram: 2 0 0 0 2 1 1 1 0 1
Neighs:          200.5 ave         224 max         181 min
Histogram: 2 0 1 1 2 0 0 0 0 2

Total # of neighbors = 1604
Ave neighs/atom = 3.1328125
Neighbor list builds = 0
Dangerous builds = 0
print           "${i} ${st} ${phi} ${pr} ${KEtot}" append ${logfile}
print           "${i} ${st} ${phi} ${pr} ${KEtot}" append compress_rate/compress_rate_0.0001/log_compress_rate_0.0001.txt
102 1070000 0.752210829654255 7.00823231687227e-05 8.94703743625778e-06
print           "${i} ${st} ${phi} ${pr} ${KEtot}" append ${pressfile}
print           "${i} ${st} ${phi} ${pr} ${KEtot}" append compress_rate/compress_rate_0.0001/press_phi_compress_rate_0.0001.txt
102 1070000 0.752210829654255 7.00823231687227e-05 8.94703743625778e-06
next            i
jump            SELF loop_compress
variable        i loop ${ncycle}
variable        i loop 150
# @before(压缩之前的我不关注)
change_box      all x scale ${scale} y scale ${scale} remap units box
change_box      all x scale 0.998 y scale ${scale} remap units box
change_box      all x scale 0.998 y scale 0.998 remap units box
Changing box ...
  orthogonal box = (3.2143244 3.1861963 -0.1) to (31.286206 31.314335 0.1)
  orthogonal box = (3.2143244 3.2143244 -0.1) to (31.286206 31.286206 0.1)
velocity        all set 0.0 0.0 0.0       # 压缩后清零速度，避免把上一轮残余动量带进来
# @after
run             ${compress_loop}        # 每轮给足够松弛时间
run             10000        
Generated 0 of 1 mixed pair_coeff terms from geometric mixing rule
Per MPI rank memory allocation (min/avg/max) = 11.24 | 11.24 | 11.24 Mbytes
   Step        Atoms          Lx             Ly           v_phi          Press          KinEng        c_ke_rot   
   1070000         512   28.071882      28.071882      0.75522872     20.62284       0              0            
   1075000         512   28.071882      28.071882      0.75522872     0.0081722425   2.8960421e-05  0            
   1080000         512   28.071882      28.071882      0.75522872     9.8788968e-05  2.0807514e-08  0            
Loop time of 0.106195 on 8 procs for 10000 steps with 512 atoms

Performance: 406798.335 tau/day, 94166.281 timesteps/s, 48.213 Matom-step/s
101.2% CPU use with 8 MPI tasks x 1 OpenMP threads

MPI task timing breakdown:
Section |  min time  |  avg time  |  max time  |%varavg| %total
---------------------------------------------------------------
Pair    | 0.014539   | 0.017455   | 0.02234    |   2.1 | 16.44
Neigh   | 0          | 0          | 0          |   0.0 |  0.00
Comm    | 0.039524   | 0.040851   | 0.042691   |   0.5 | 38.47
Output  | 0.000805   | 0.0011179  | 0.001393   |   0.6 |  1.05
Modify  | 0.011043   | 0.012169   | 0.013202   |   0.6 | 11.46
Other   |            | 0.0346     |            |       | 32.58

Nlocal:             64 ave          69 max          60 min
Histogram: 1 1 0 1 2 1 1 0 0 1
Nghost:          60.25 ave          65 max          56 min
Histogram: 2 0 0 0 2 2 0 1 0 1
Neighs:        200.875 ave         226 max         182 min
Histogram: 2 0 1 1 2 0 0 0 1 1

Total # of neighbors = 1607
Ave neighs/atom = 3.1386719
Neighbor list builds = 0
Dangerous builds = 0
print           "${i} ${st} ${phi} ${pr} ${KEtot}" append ${logfile}
print           "${i} ${st} ${phi} ${pr} ${KEtot}" append compress_rate/compress_rate_0.0001/log_compress_rate_0.0001.txt
103 1080000 0.755228723633897 9.87889677405761e-05 1.06534473320351e-05
print           "${i} ${st} ${phi} ${pr} ${KEtot}" append ${pressfile}
print           "${i} ${st} ${phi} ${pr} ${KEtot}" append compress_rate/compress_rate_0.0001/press_phi_compress_rate_0.0001.txt
103 1080000 0.755228723633897 9.87889677405761e-05 1.06534473320351e-05
next            i
jump            SELF loop_compress
variable        i loop ${ncycle}
variable        i loop 150
# @before(压缩之前的我不关注)
change_box      all x scale ${scale} y scale ${scale} remap units box
change_box      all x scale 0.998 y scale ${scale} remap units box
change_box      all x scale 0.998 y scale 0.998 remap units box
Changing box ...
  orthogonal box = (3.2423963 3.2143244 -0.1) to (31.258135 31.286206 0.1)
  orthogonal box = (3.2423963 3.2423963 -0.1) to (31.258135 31.258135 0.1)
velocity        all set 0.0 0.0 0.0       # 压缩后清零速度，避免把上一轮残余动量带进来
# @after
run             ${compress_loop}        # 每轮给足够松弛时间
run             10000        
Generated 0 of 1 mixed pair_coeff terms from geometric mixing rule
Per MPI rank memory allocation (min/avg/max) = 11.24 | 11.24 | 11.24 Mbytes
   Step        Atoms          Lx             Ly           v_phi          Press          KinEng        c_ke_rot   
   1080000         512   28.015738      28.015738      0.75825873     21.240762      0              0            
   1085000         512   28.015738      28.015738      0.75825873     0.0067293117   2.946431e-05   0            
   1090000         512   28.015738      28.015738      0.75825873     8.0531424e-05  2.2093411e-08  0            
Loop time of 0.113963 on 8 procs for 10000 steps with 512 atoms

Performance: 379070.400 tau/day, 87747.778 timesteps/s, 44.927 Matom-step/s
96.0% CPU use with 8 MPI tasks x 1 OpenMP threads

MPI task timing breakdown:
Section |  min time  |  avg time  |  max time  |%varavg| %total
---------------------------------------------------------------
Pair    | 0.01389    | 0.017383   | 0.021807   |   2.0 | 15.25
Neigh   | 0          | 0          | 0          |   0.0 |  0.00
Comm    | 0.040944   | 0.04346    | 0.046377   |   0.7 | 38.14
Output  | 0.000767   | 0.000999   | 0.001233   |   0.0 |  0.88
Modify  | 0.01089    | 0.012341   | 0.013381   |   0.6 | 10.83
Other   |            | 0.03978    |            |       | 34.91

Nlocal:             64 ave          69 max          60 min
Histogram: 1 1 0 1 2 1 1 0 0 1
Nghost:         60.375 ave          65 max          55 min
Histogram: 1 0 1 0 0 1 3 0 1 1
Neighs:        200.625 ave         225 max         183 min
Histogram: 2 0 1 2 1 0 0 0 0 2

Total # of neighbors = 1605
Ave neighs/atom = 3.1347656
Neighbor list builds = 0
Dangerous builds = 0
print           "${i} ${st} ${phi} ${pr} ${KEtot}" append ${logfile}
print           "${i} ${st} ${phi} ${pr} ${KEtot}" append compress_rate/compress_rate_0.0001/log_compress_rate_0.0001.txt
104 1090000 0.758258725500998 8.05314242625961e-05 1.13118263776257e-05
print           "${i} ${st} ${phi} ${pr} ${KEtot}" append ${pressfile}
print           "${i} ${st} ${phi} ${pr} ${KEtot}" append compress_rate/compress_rate_0.0001/press_phi_compress_rate_0.0001.txt
104 1090000 0.758258725500998 8.05314242625961e-05 1.13118263776257e-05
next            i
jump            SELF loop_compress
variable        i loop ${ncycle}
variable        i loop 150
# @before(压缩之前的我不关注)
change_box      all x scale ${scale} y scale ${scale} remap units box
change_box      all x scale 0.998 y scale ${scale} remap units box
change_box      all x scale 0.998 y scale 0.998 remap units box
Changing box ...
  orthogonal box = (3.270412 3.2423963 -0.1) to (31.230119 31.258135 0.1)
  orthogonal box = (3.270412 3.270412 -0.1) to (31.230119 31.230119 0.1)
velocity        all set 0.0 0.0 0.0       # 压缩后清零速度，避免把上一轮残余动量带进来
# @after
run             ${compress_loop}        # 每轮给足够松弛时间
run             10000        
Generated 0 of 1 mixed pair_coeff terms from geometric mixing rule
Per MPI rank memory allocation (min/avg/max) = 11.24 | 11.24 | 11.24 Mbytes
   Step        Atoms          Lx             Ly           v_phi          Press          KinEng        c_ke_rot   
   1090000         512   27.959707      27.959707      0.76130088     21.118282      0              0            
   1095000         512   27.959707      27.959707      0.76130088     0.0079342221   2.7424766e-05  0            
   1100000         512   27.959707      27.959707      0.76130088     7.1487714e-05  2.0465551e-08  0            
Loop time of 0.102598 on 8 procs for 10000 steps with 512 atoms

Performance: 421060.839 tau/day, 97467.787 timesteps/s, 49.904 Matom-step/s
100.9% CPU use with 8 MPI tasks x 1 OpenMP threads

MPI task timing breakdown:
Section |  min time  |  avg time  |  max time  |%varavg| %total
---------------------------------------------------------------
Pair    | 0.012956   | 0.016913   | 0.021456   |   1.9 | 16.48
Neigh   | 0          | 0          | 0          |   0.0 |  0.00
Comm    | 0.037531   | 0.039481   | 0.041356   |   0.6 | 38.48
Output  | 0.000639   | 0.00079337 | 0.000953   |   0.0 |  0.77
Modify  | 0.010886   | 0.012034   | 0.012836   |   0.6 | 11.73
Other   |            | 0.03338    |            |       | 32.53

Nlocal:             64 ave          69 max          60 min
Histogram: 1 1 0 1 2 1 1 0 0 1
Nghost:          60.75 ave          65 max          55 min
Histogram: 1 0 1 0 0 1 1 1 2 1
Neighs:        201.125 ave         225 max         183 min
Histogram: 2 0 1 1 2 0 0 0 0 2

Total # of neighbors = 1609
Ave neighs/atom = 3.1425781
Neighbor list builds = 0
Dangerous builds = 0
print           "${i} ${st} ${phi} ${pr} ${KEtot}" append ${logfile}
print           "${i} ${st} ${phi} ${pr} ${KEtot}" append compress_rate/compress_rate_0.0001/log_compress_rate_0.0001.txt
105 1100000 0.761300883832794 7.1487714446499e-05 1.04783622976748e-05
print           "${i} ${st} ${phi} ${pr} ${KEtot}" append ${pressfile}
print           "${i} ${st} ${phi} ${pr} ${KEtot}" append compress_rate/compress_rate_0.0001/press_phi_compress_rate_0.0001.txt
105 1100000 0.761300883832794 7.1487714446499e-05 1.04783622976748e-05
next            i
jump            SELF loop_compress
variable        i loop ${ncycle}
variable        i loop 150
# @before(压缩之前的我不关注)
change_box      all x scale ${scale} y scale ${scale} remap units box
change_box      all x scale 0.998 y scale ${scale} remap units box
change_box      all x scale 0.998 y scale 0.998 remap units box
Changing box ...
  orthogonal box = (3.2983717 3.270412 -0.1) to (31.202159 31.230119 0.1)
  orthogonal box = (3.2983717 3.2983717 -0.1) to (31.202159 31.202159 0.1)
velocity        all set 0.0 0.0 0.0       # 压缩后清零速度，避免把上一轮残余动量带进来
# @after
run             ${compress_loop}        # 每轮给足够松弛时间
run             10000        
Generated 0 of 1 mixed pair_coeff terms from geometric mixing rule
Per MPI rank memory allocation (min/avg/max) = 11.24 | 11.24 | 11.24 Mbytes
   Step        Atoms          Lx             Ly           v_phi          Press          KinEng        c_ke_rot   
   1100000         512   27.903787      27.903787      0.76435525     21.631668      0              0            
   1105000         512   27.903787      27.903787      0.76435525     0.0093844211   2.9163116e-05  0            
   1110000         512   27.903787      27.903787      0.76435525     6.5645269e-05  2.1910246e-08  0            
Loop time of 0.121197 on 8 procs for 10000 steps with 512 atoms

Performance: 356445.937 tau/day, 82510.634 timesteps/s, 42.245 Matom-step/s
101.5% CPU use with 8 MPI tasks x 1 OpenMP threads

MPI task timing breakdown:
Section |  min time  |  avg time  |  max time  |%varavg| %total
---------------------------------------------------------------
Pair    | 0.014439   | 0.01873    | 0.023374   |   2.1 | 15.45
Neigh   | 0          | 0          | 0          |   0.0 |  0.00
Comm    | 0.042999   | 0.045325   | 0.048218   |   0.7 | 37.40
Output  | 0.000877   | 0.001225   | 0.001595   |   0.7 |  1.01
Modify  | 0.011102   | 0.012587   | 0.013723   |   0.7 | 10.39
Other   |            | 0.04333    |            |       | 35.75

Nlocal:             64 ave          68 max          60 min
Histogram: 1 1 0 1 0 1 2 1 0 1
Nghost:          60.75 ave          65 max          55 min
Histogram: 1 0 1 0 0 0 2 2 1 1
Neighs:        201.875 ave         224 max         186 min
Histogram: 2 0 2 1 1 0 0 0 0 2

Total # of neighbors = 1615
Ave neighs/atom = 3.1542969
Neighbor list builds = 0
Dangerous builds = 0
print           "${i} ${st} ${phi} ${pr} ${KEtot}" append ${logfile}
print           "${i} ${st} ${phi} ${pr} ${KEtot}" append compress_rate/compress_rate_0.0001/log_compress_rate_0.0001.txt
106 1110000 0.76435524740141 6.56452685300805e-05 1.12180459429069e-05
print           "${i} ${st} ${phi} ${pr} ${KEtot}" append ${pressfile}
print           "${i} ${st} ${phi} ${pr} ${KEtot}" append compress_rate/compress_rate_0.0001/press_phi_compress_rate_0.0001.txt
106 1110000 0.76435524740141 6.56452685300805e-05 1.12180459429069e-05
next            i
jump            SELF loop_compress
variable        i loop ${ncycle}
variable        i loop 150
# @before(压缩之前的我不关注)
change_box      all x scale ${scale} y scale ${scale} remap units box
change_box      all x scale 0.998 y scale ${scale} remap units box
change_box      all x scale 0.998 y scale 0.998 remap units box
Changing box ...
  orthogonal box = (3.3262755 3.2983717 -0.1) to (31.174255 31.202159 0.1)
  orthogonal box = (3.3262755 3.3262755 -0.1) to (31.174255 31.174255 0.1)
velocity        all set 0.0 0.0 0.0       # 压缩后清零速度，避免把上一轮残余动量带进来
# @after
run             ${compress_loop}        # 每轮给足够松弛时间
run             10000        
Generated 0 of 1 mixed pair_coeff terms from geometric mixing rule
Per MPI rank memory allocation (min/avg/max) = 11.24 | 11.24 | 11.24 Mbytes
   Step        Atoms          Lx             Ly           v_phi          Press          KinEng        c_ke_rot   
   1110000         512   27.84798       27.84798       0.76742187     22.293452      0              0            
   1115000         512   27.84798       27.84798       0.76742187     0.0094009306   3.209698e-05   0            
   1120000         512   27.84798       27.84798       0.76742187     7.9584031e-05  2.3752752e-08  0            
Loop time of 0.115395 on 8 procs for 10000 steps with 512 atoms

Performance: 374364.685 tau/day, 86658.492 timesteps/s, 44.369 Matom-step/s
94.8% CPU use with 8 MPI tasks x 1 OpenMP threads

MPI task timing breakdown:
Section |  min time  |  avg time  |  max time  |%varavg| %total
---------------------------------------------------------------
Pair    | 0.015446   | 0.018515   | 0.021968   |   1.7 | 16.04
Neigh   | 0          | 0          | 0          |   0.0 |  0.00
Comm    | 0.040924   | 0.043739   | 0.046546   |   0.9 | 37.90
Output  | 0.000907   | 0.0010816  | 0.00129    |   0.4 |  0.94
Modify  | 0.01147    | 0.012269   | 0.013163   |   0.5 | 10.63
Other   |            | 0.03979    |            |       | 34.48

Nlocal:             64 ave          67 max          60 min
Histogram: 1 0 1 0 1 2 0 0 2 1
Nghost:         60.625 ave          64 max          55 min
Histogram: 1 0 1 0 0 0 2 2 1 1
Neighs:          203.5 ave         223 max         188 min
Histogram: 2 0 0 2 2 0 0 0 1 1

Total # of neighbors = 1628
Ave neighs/atom = 3.1796875
Neighbor list builds = 0
Dangerous builds = 0
print           "${i} ${st} ${phi} ${pr} ${KEtot}" append ${logfile}
print           "${i} ${st} ${phi} ${pr} ${KEtot}" append compress_rate/compress_rate_0.0001/log_compress_rate_0.0001.txt
107 1120000 0.767421865174648 7.95840307571989e-05 1.21614091545549e-05
print           "${i} ${st} ${phi} ${pr} ${KEtot}" append ${pressfile}
print           "${i} ${st} ${phi} ${pr} ${KEtot}" append compress_rate/compress_rate_0.0001/press_phi_compress_rate_0.0001.txt
107 1120000 0.767421865174648 7.95840307571989e-05 1.21614091545549e-05
next            i
jump            SELF loop_compress
variable        i loop ${ncycle}
variable        i loop 150
# @before(压缩之前的我不关注)
change_box      all x scale ${scale} y scale ${scale} remap units box
change_box      all x scale 0.998 y scale ${scale} remap units box
change_box      all x scale 0.998 y scale 0.998 remap units box
Changing box ...
  orthogonal box = (3.3541235 3.3262755 -0.1) to (31.146407 31.174255 0.1)
  orthogonal box = (3.3541235 3.3541235 -0.1) to (31.146407 31.146407 0.1)
velocity        all set 0.0 0.0 0.0       # 压缩后清零速度，避免把上一轮残余动量带进来
# @after
run             ${compress_loop}        # 每轮给足够松弛时间
run             10000        
Generated 0 of 1 mixed pair_coeff terms from geometric mixing rule
Per MPI rank memory allocation (min/avg/max) = 11.24 | 11.24 | 11.24 Mbytes
   Step        Atoms          Lx             Ly           v_phi          Press          KinEng        c_ke_rot   
   1120000         512   27.792284      27.792284      0.77050079     22.388469      0              0            
   1125000         512   27.792284      27.792284      0.77050079     0.010916135    2.8778239e-05  0            
   1130000         512   27.792284      27.792284      0.77050079     0.00010620683  2.0340116e-08  0            
Loop time of 0.117716 on 8 procs for 10000 steps with 512 atoms

Performance: 366983.388 tau/day, 84949.858 timesteps/s, 43.494 Matom-step/s
104.5% CPU use with 8 MPI tasks x 1 OpenMP threads

MPI task timing breakdown:
Section |  min time  |  avg time  |  max time  |%varavg| %total
---------------------------------------------------------------
Pair    | 0.016763   | 0.019688   | 0.022085   |   1.1 | 16.73
Neigh   | 0          | 0          | 0          |   0.0 |  0.00
Comm    | 0.04045    | 0.044239   | 0.047757   |   1.0 | 37.58
Output  | 0.000683   | 0.00087588 | 0.001056   |   0.0 |  0.74
Modify  | 0.011523   | 0.01248    | 0.013291   |   0.5 | 10.60
Other   |            | 0.04043    |            |       | 34.35

Nlocal:             64 ave          67 max          60 min
Histogram: 1 0 1 0 2 1 0 0 1 2
Nghost:         60.625 ave          64 max          55 min
Histogram: 1 0 1 0 0 1 1 1 2 1
Neighs:        204.625 ave         222 max         187 min
Histogram: 1 1 0 1 1 1 1 0 0 2

Total # of neighbors = 1637
Ave neighs/atom = 3.1972656
Neighbor list builds = 0
Dangerous builds = 0
print           "${i} ${st} ${phi} ${pr} ${KEtot}" append ${logfile}
print           "${i} ${st} ${phi} ${pr} ${KEtot}" append compress_rate/compress_rate_0.0001/log_compress_rate_0.0001.txt
108 1130000 0.77050078631677 0.00010620682735565 1.04141392822152e-05
print           "${i} ${st} ${phi} ${pr} ${KEtot}" append ${pressfile}
print           "${i} ${st} ${phi} ${pr} ${KEtot}" append compress_rate/compress_rate_0.0001/press_phi_compress_rate_0.0001.txt
108 1130000 0.77050078631677 0.00010620682735565 1.04141392822152e-05
next            i
jump            SELF loop_compress
variable        i loop ${ncycle}
variable        i loop 150
# @before(压缩之前的我不关注)
change_box      all x scale ${scale} y scale ${scale} remap units box
change_box      all x scale 0.998 y scale ${scale} remap units box
change_box      all x scale 0.998 y scale 0.998 remap units box
Changing box ...
  orthogonal box = (3.3819158 3.3541235 -0.1) to (31.118615 31.146407 0.1)
  orthogonal box = (3.3819158 3.3819158 -0.1) to (31.118615 31.118615 0.1)
velocity        all set 0.0 0.0 0.0       # 压缩后清零速度，避免把上一轮残余动量带进来
# @after
run             ${compress_loop}        # 每轮给足够松弛时间
run             10000        
Generated 0 of 1 mixed pair_coeff terms from geometric mixing rule
Per MPI rank memory allocation (min/avg/max) = 11.24 | 11.24 | 11.24 Mbytes
   Step        Atoms          Lx             Ly           v_phi          Press          KinEng        c_ke_rot   
   1130000         512   27.736699      27.736699      0.77359206     23.275412      0              0            
   1135000         512   27.736699      27.736699      0.77359206     0.014149402    3.8844528e-05  0            
   1140000         512   27.736699      27.736699      0.77359206     0.00015011932  2.5736302e-08  0            
Loop time of 0.103163 on 8 procs for 10000 steps with 512 atoms

Performance: 418754.786 tau/day, 96933.978 timesteps/s, 49.630 Matom-step/s
100.3% CPU use with 8 MPI tasks x 1 OpenMP threads

MPI task timing breakdown:
Section |  min time  |  avg time  |  max time  |%varavg| %total
---------------------------------------------------------------
Pair    | 0.016134   | 0.019948   | 0.022962   |   1.5 | 19.34
Neigh   | 0          | 0          | 0          |   0.0 |  0.00
Comm    | 0.037728   | 0.038934   | 0.040734   |   0.5 | 37.74
Output  | 0.000855   | 0.0010005  | 0.001159   |   0.3 |  0.97
Modify  | 0.011045   | 0.011958   | 0.012869   |   0.6 | 11.59
Other   |            | 0.03132    |            |       | 30.36

Nlocal:             64 ave          67 max          60 min
Histogram: 1 0 1 0 2 1 0 0 1 2
Nghost:         60.875 ave          64 max          56 min
Histogram: 2 0 0 0 0 1 0 1 3 1
Neighs:        205.875 ave         223 max         186 min
Histogram: 1 1 0 0 0 3 1 0 0 2

Total # of neighbors = 1647
Ave neighs/atom = 3.2167969
Neighbor list builds = 0
Dangerous builds = 0
print           "${i} ${st} ${phi} ${pr} ${KEtot}" append ${logfile}
print           "${i} ${st} ${phi} ${pr} ${KEtot}" append compress_rate/compress_rate_0.0001/log_compress_rate_0.0001.txt
109 1140000 0.773592060189287 0.000150119316960502 1.31769866967827e-05
print           "${i} ${st} ${phi} ${pr} ${KEtot}" append ${pressfile}
print           "${i} ${st} ${phi} ${pr} ${KEtot}" append compress_rate/compress_rate_0.0001/press_phi_compress_rate_0.0001.txt
109 1140000 0.773592060189287 0.000150119316960502 1.31769866967827e-05
next            i
jump            SELF loop_compress
variable        i loop ${ncycle}
variable        i loop 150
# @before(压缩之前的我不关注)
change_box      all x scale ${scale} y scale ${scale} remap units box
change_box      all x scale 0.998 y scale ${scale} remap units box
change_box      all x scale 0.998 y scale 0.998 remap units box
Changing box ...
  orthogonal box = (3.4096525 3.3819158 -0.1) to (31.090878 31.118615 0.1)
  orthogonal box = (3.4096525 3.4096525 -0.1) to (31.090878 31.090878 0.1)
velocity        all set 0.0 0.0 0.0       # 压缩后清零速度，避免把上一轮残余动量带进来
# @after
run             ${compress_loop}        # 每轮给足够松弛时间
run             10000        
Generated 0 of 1 mixed pair_coeff terms from geometric mixing rule
Per MPI rank memory allocation (min/avg/max) = 11.24 | 11.24 | 11.24 Mbytes
   Step        Atoms          Lx             Ly           v_phi          Press          KinEng        c_ke_rot   
   1140000         512   27.681226      27.681226      0.77669574     24.622213      0              0            
   1145000         512   27.681226      27.681226      0.77669574     0.019928922    5.4030819e-05  0            
   1150000         512   27.681226      27.681226      0.77669574     0.00013367097  3.4472314e-08  0            
Loop time of 0.105848 on 8 procs for 10000 steps with 512 atoms

Performance: 408132.898 tau/day, 94475.208 timesteps/s, 48.371 Matom-step/s
92.3% CPU use with 8 MPI tasks x 1 OpenMP threads

MPI task timing breakdown:
Section |  min time  |  avg time  |  max time  |%varavg| %total
---------------------------------------------------------------
Pair    | 0.016648   | 0.020354   | 0.02404    |   1.8 | 19.23
Neigh   | 0          | 0          | 0          |   0.0 |  0.00
Comm    | 0.036789   | 0.039488   | 0.04349    |   1.1 | 37.31
Output  | 0.000738   | 0.000914   | 0.001116   |   0.0 |  0.86
Modify  | 0.01107    | 0.012046   | 0.013599   |   0.7 | 11.38
Other   |            | 0.03305    |            |       | 31.22

Nlocal:             64 ave          67 max          60 min
Histogram: 1 0 1 0 1 2 0 0 2 1
Nghost:         60.625 ave          64 max          55 min
Histogram: 1 1 0 0 0 0 2 1 2 1
Neighs:          206.5 ave         223 max         187 min
Histogram: 1 0 0 1 0 4 0 0 1 1

Total # of neighbors = 1652
Ave neighs/atom = 3.2265625
Neighbor list builds = 0
Dangerous builds = 0
print           "${i} ${st} ${phi} ${pr} ${KEtot}" append ${logfile}
print           "${i} ${st} ${phi} ${pr} ${KEtot}" append compress_rate/compress_rate_0.0001/log_compress_rate_0.0001.txt
110 1150000 0.776695736351748 0.000133670971537409 1.7649824602164e-05
print           "${i} ${st} ${phi} ${pr} ${KEtot}" append ${pressfile}
print           "${i} ${st} ${phi} ${pr} ${KEtot}" append compress_rate/compress_rate_0.0001/press_phi_compress_rate_0.0001.txt
110 1150000 0.776695736351748 0.000133670971537409 1.7649824602164e-05
next            i
jump            SELF loop_compress
variable        i loop ${ncycle}
variable        i loop 150
# @before(压缩之前的我不关注)
change_box      all x scale ${scale} y scale ${scale} remap units box
change_box      all x scale 0.998 y scale ${scale} remap units box
change_box      all x scale 0.998 y scale 0.998 remap units box
Changing box ...
  orthogonal box = (3.4373337 3.4096525 -0.1) to (31.063197 31.090878 0.1)
  orthogonal box = (3.4373337 3.4373337 -0.1) to (31.063197 31.063197 0.1)
velocity        all set 0.0 0.0 0.0       # 压缩后清零速度，避免把上一轮残余动量带进来
# @after
run             ${compress_loop}        # 每轮给足够松弛时间
run             10000        
Generated 0 of 1 mixed pair_coeff terms from geometric mixing rule
Per MPI rank memory allocation (min/avg/max) = 11.24 | 11.24 | 11.24 Mbytes
   Step        Atoms          Lx             Ly           v_phi          Press          KinEng        c_ke_rot   
   1150000         512   27.625863      27.625863      0.77981186     25.444095      0              0            
   1155000         512   27.625863      27.625863      0.77981186     0.02390954     7.0600502e-05  0            
   1160000         512   27.625863      27.625863      0.77981186     0.00020280153  4.3324838e-08  0            
Loop time of 0.097595 on 8 procs for 10000 steps with 512 atoms

Performance: 442645.627 tau/day, 102464.266 timesteps/s, 52.462 Matom-step/s
90.1% CPU use with 8 MPI tasks x 1 OpenMP threads

MPI task timing breakdown:
Section |  min time  |  avg time  |  max time  |%varavg| %total
---------------------------------------------------------------
Pair    | 0.017543   | 0.020983   | 0.022873   |   1.2 | 21.50
Neigh   | 0          | 0          | 0          |   0.0 |  0.00
Comm    | 0.035677   | 0.036916   | 0.038214   |   0.5 | 37.83
Output  | 0.000758   | 0.000974   | 0.001218   |   0.0 |  1.00
Modify  | 0.010934   | 0.011652   | 0.012702   |   0.6 | 11.94
Other   |            | 0.02707    |            |       | 27.74

Nlocal:             64 ave          67 max          60 min
Histogram: 1 0 1 0 1 2 0 0 2 1
Nghost:         60.875 ave          64 max          56 min
Histogram: 2 0 0 0 0 1 0 2 1 2
Neighs:        207.875 ave         222 max         190 min
Histogram: 1 0 0 1 0 3 1 0 0 2

Total # of neighbors = 1663
Ave neighs/atom = 3.2480469
Neighbor list builds = 0
Dangerous builds = 0
print           "${i} ${st} ${phi} ${pr} ${KEtot}" append ${logfile}
print           "${i} ${st} ${phi} ${pr} ${KEtot}" append compress_rate/compress_rate_0.0001/log_compress_rate_0.0001.txt
111 1160000 0.77981186456254 0.000202801531648409 2.21823170092088e-05
print           "${i} ${st} ${phi} ${pr} ${KEtot}" append ${pressfile}
print           "${i} ${st} ${phi} ${pr} ${KEtot}" append compress_rate/compress_rate_0.0001/press_phi_compress_rate_0.0001.txt
111 1160000 0.77981186456254 0.000202801531648409 2.21823170092088e-05
next            i
jump            SELF loop_compress
variable        i loop ${ncycle}
variable        i loop 150
# @before(压缩之前的我不关注)
change_box      all x scale ${scale} y scale ${scale} remap units box
change_box      all x scale 0.998 y scale ${scale} remap units box
change_box      all x scale 0.998 y scale 0.998 remap units box
Changing box ...
  orthogonal box = (3.4649596 3.4373337 -0.1) to (31.035571 31.063197 0.1)
  orthogonal box = (3.4649596 3.4649596 -0.1) to (31.035571 31.035571 0.1)
velocity        all set 0.0 0.0 0.0       # 压缩后清零速度，避免把上一轮残余动量带进来
# @after
run             ${compress_loop}        # 每轮给足够松弛时间
run             10000        
Generated 0 of 1 mixed pair_coeff terms from geometric mixing rule
Per MPI rank memory allocation (min/avg/max) = 11.24 | 11.24 | 11.24 Mbytes
   Step        Atoms          Lx             Ly           v_phi          Press          KinEng        c_ke_rot   
   1160000         512   27.570612      27.570612      0.78294049     27.683743      0              0            
   1165000         512   27.570612      27.570612      0.78294049     0.028637803    0.00011090881  0            
   1170000         512   27.570612      27.570612      0.78294049     0.00025051594  6.6915179e-08  0            
Loop time of 0.115369 on 8 procs for 10000 steps with 512 atoms

Performance: 374450.676 tau/day, 86678.397 timesteps/s, 44.379 Matom-step/s
94.8% CPU use with 8 MPI tasks x 1 OpenMP threads

MPI task timing breakdown:
Section |  min time  |  avg time  |  max time  |%varavg| %total
---------------------------------------------------------------
Pair    | 0.021329   | 0.024088   | 0.027268   |   1.2 | 20.88
Neigh   | 0          | 0          | 0          |   0.0 |  0.00
Comm    | 0.039347   | 0.041811   | 0.043258   |   0.6 | 36.24
Output  | 0.000646   | 0.00088212 | 0.001194   |   0.0 |  0.76
Modify  | 0.011091   | 0.012238   | 0.01374    |   0.7 | 10.61
Other   |            | 0.03635    |            |       | 31.51

Nlocal:             64 ave          68 max          60 min
Histogram: 1 1 0 2 0 0 1 2 0 1
Nghost:             61 ave          65 max          55 min
Histogram: 1 0 1 0 0 1 1 1 0 3
Neighs:         207.75 ave         224 max         192 min
Histogram: 1 0 0 3 0 2 0 1 0 1

Total # of neighbors = 1662
Ave neighs/atom = 3.2460938
Neighbor list builds = 0
Dangerous builds = 0
print           "${i} ${st} ${phi} ${pr} ${KEtot}" append ${logfile}
print           "${i} ${st} ${phi} ${pr} ${KEtot}" append compress_rate/compress_rate_0.0001/log_compress_rate_0.0001.txt
112 1170000 0.78294049477968 0.000250515936928363 3.42605714992196e-05
print           "${i} ${st} ${phi} ${pr} ${KEtot}" append ${pressfile}
print           "${i} ${st} ${phi} ${pr} ${KEtot}" append compress_rate/compress_rate_0.0001/press_phi_compress_rate_0.0001.txt
112 1170000 0.78294049477968 0.000250515936928363 3.42605714992196e-05
next            i
jump            SELF loop_compress
variable        i loop ${ncycle}
variable        i loop 150
# @before(压缩之前的我不关注)
change_box      all x scale ${scale} y scale ${scale} remap units box
change_box      all x scale 0.998 y scale ${scale} remap units box
change_box      all x scale 0.998 y scale 0.998 remap units box
Changing box ...
  orthogonal box = (3.4925302 3.4649596 -0.1) to (31.008001 31.035571 0.1)
  orthogonal box = (3.4925302 3.4925302 -0.1) to (31.008001 31.008001 0.1)
velocity        all set 0.0 0.0 0.0       # 压缩后清零速度，避免把上一轮残余动量带进来
# @after
run             ${compress_loop}        # 每轮给足够松弛时间
run             10000        
Generated 0 of 1 mixed pair_coeff terms from geometric mixing rule
Per MPI rank memory allocation (min/avg/max) = 11.24 | 11.24 | 11.24 Mbytes
   Step        Atoms          Lx             Ly           v_phi          Press          KinEng        c_ke_rot   
   1170000         512   27.51547       27.51547       0.78608168     28.248926      0              0            
   1175000         512   27.51547       27.51547       0.78608168     0.035227579    0.00013546488  0            
   1180000         512   27.51547       27.51547       0.78608168     0.00028597655  7.8823615e-08  0            
Loop time of 0.115571 on 8 procs for 10000 steps with 512 atoms

Performance: 373795.386 tau/day, 86526.710 timesteps/s, 44.302 Matom-step/s
92.9% CPU use with 8 MPI tasks x 1 OpenMP threads

MPI task timing breakdown:
Section |  min time  |  avg time  |  max time  |%varavg| %total
---------------------------------------------------------------
Pair    | 0.021128   | 0.024348   | 0.028908   |   1.4 | 21.07
Neigh   | 0          | 0          | 0          |   0.0 |  0.00
Comm    | 0.037202   | 0.040919   | 0.043953   |   1.0 | 35.41
Output  | 0.000763   | 0.00099588 | 0.00124    |   0.0 |  0.86
Modify  | 0.011061   | 0.012143   | 0.012897   |   0.5 | 10.51
Other   |            | 0.03717    |            |       | 32.16

Nlocal:             64 ave          68 max          60 min
Histogram: 1 1 0 2 0 0 1 2 0 1
Nghost:             62 ave          65 max          58 min
Histogram: 1 1 1 0 0 1 0 1 1 2
Neighs:        208.625 ave         226 max         193 min
Histogram: 1 0 0 3 1 1 0 1 0 1

Total # of neighbors = 1669
Ave neighs/atom = 3.2597656
Neighbor list builds = 0
Dangerous builds = 0
print           "${i} ${st} ${phi} ${pr} ${KEtot}" append ${logfile}
print           "${i} ${st} ${phi} ${pr} ${KEtot}" append compress_rate/compress_rate_0.0001/log_compress_rate_0.0001.txt
113 1180000 0.786081677161618 0.000285976554617438 4.03576910747853e-05
print           "${i} ${st} ${phi} ${pr} ${KEtot}" append ${pressfile}
print           "${i} ${st} ${phi} ${pr} ${KEtot}" append compress_rate/compress_rate_0.0001/press_phi_compress_rate_0.0001.txt
113 1180000 0.786081677161618 0.000285976554617438 4.03576910747853e-05
next            i
jump            SELF loop_compress
variable        i loop ${ncycle}
variable        i loop 150
# @before(压缩之前的我不关注)
change_box      all x scale ${scale} y scale ${scale} remap units box
change_box      all x scale 0.998 y scale ${scale} remap units box
change_box      all x scale 0.998 y scale 0.998 remap units box
Changing box ...
  orthogonal box = (3.5200457 3.4925302 -0.1) to (30.980485 31.008001 0.1)
  orthogonal box = (3.5200457 3.5200457 -0.1) to (30.980485 30.980485 0.1)
velocity        all set 0.0 0.0 0.0       # 压缩后清零速度，避免把上一轮残余动量带进来
# @after
run             ${compress_loop}        # 每轮给足够松弛时间
run             10000        
Generated 0 of 1 mixed pair_coeff terms from geometric mixing rule
Per MPI rank memory allocation (min/avg/max) = 11.24 | 11.24 | 11.24 Mbytes
   Step        Atoms          Lx             Ly           v_phi          Press          KinEng        c_ke_rot   
   1180000         512   27.460439      27.460439      0.78923546     28.767078      0              0            
   1185000         512   27.460439      27.460439      0.78923546     0.1099214      0.00021484726  0            
   1190000         512   27.460439      27.460439      0.78923546     0.00046761936  1.0970161e-07  0            
Loop time of 0.135803 on 8 procs for 10000 steps with 512 atoms

Performance: 318108.140 tau/day, 73636.144 timesteps/s, 37.702 Matom-step/s
100.7% CPU use with 8 MPI tasks x 1 OpenMP threads

MPI task timing breakdown:
Section |  min time  |  avg time  |  max time  |%varavg| %total
---------------------------------------------------------------
Pair    | 0.023572   | 0.026538   | 0.02832    |   1.0 | 19.54
Neigh   | 0          | 0          | 0          |   0.0 |  0.00
Comm    | 0.045107   | 0.047374   | 0.049346   |   0.6 | 34.88
Output  | 0.000953   | 0.0011166  | 0.001355   |   0.4 |  0.82
Modify  | 0.011539   | 0.012566   | 0.013566   |   0.5 |  9.25
Other   |            | 0.04821    |            |       | 35.50

Nlocal:             64 ave          67 max          60 min
Histogram: 1 1 0 0 2 0 0 1 1 2
Nghost:          62.25 ave          66 max          58 min
Histogram: 1 1 0 1 0 1 1 1 1 1
Neighs:          209.5 ave         225 max         196 min
Histogram: 1 0 1 2 1 0 1 1 0 1

Total # of neighbors = 1676
Ave neighs/atom = 3.2734375
Neighbor list builds = 0
Dangerous builds = 0
print           "${i} ${st} ${phi} ${pr} ${KEtot}" append ${logfile}
print           "${i} ${st} ${phi} ${pr} ${KEtot}" append compress_rate/compress_rate_0.0001/log_compress_rate_0.0001.txt
114 1190000 0.789235462068042 0.000467619363213397 5.61672245384124e-05
print           "${i} ${st} ${phi} ${pr} ${KEtot}" append ${pressfile}
print           "${i} ${st} ${phi} ${pr} ${KEtot}" append compress_rate/compress_rate_0.0001/press_phi_compress_rate_0.0001.txt
114 1190000 0.789235462068042 0.000467619363213397 5.61672245384124e-05
next            i
jump            SELF loop_compress
variable        i loop ${ncycle}
variable        i loop 150
# @before(压缩之前的我不关注)
change_box      all x scale ${scale} y scale ${scale} remap units box
change_box      all x scale 0.998 y scale ${scale} remap units box
change_box      all x scale 0.998 y scale 0.998 remap units box
Changing box ...
  orthogonal box = (3.5475061 3.5200457 -0.1) to (30.953025 30.980485 0.1)
  orthogonal box = (3.5475061 3.5475061 -0.1) to (30.953025 30.953025 0.1)
velocity        all set 0.0 0.0 0.0       # 压缩后清零速度，避免把上一轮残余动量带进来
# @after
run             ${compress_loop}        # 每轮给足够松弛时间
run             10000        
Generated 0 of 1 mixed pair_coeff terms from geometric mixing rule
Per MPI rank memory allocation (min/avg/max) = 11.24 | 11.24 | 11.24 Mbytes
   Step        Atoms          Lx             Ly           v_phi          Press          KinEng        c_ke_rot   
   1190000         512   27.405519      27.405519      0.7924019      30.199242      0              0            
   1195000         512   27.405519      27.405519      0.7924019      0.31545055     0.00040721445  0            
   1200000         512   27.405519      27.405519      0.7924019      0.00056237932  1.9303771e-07  0            
Loop time of 0.165963 on 8 procs for 10000 steps with 512 atoms

Performance: 260299.178 tau/day, 60254.439 timesteps/s, 30.850 Matom-step/s
95.3% CPU use with 8 MPI tasks x 1 OpenMP threads

MPI task timing breakdown:
Section |  min time  |  avg time  |  max time  |%varavg| %total
---------------------------------------------------------------
Pair    | 0.029485   | 0.034289   | 0.037984   |   1.3 | 20.66
Neigh   | 0          | 0          | 0          |   0.0 |  0.00
Comm    | 0.053508   | 0.0558     | 0.057941   |   0.6 | 33.62
Output  | 0.000993   | 0.0011661  | 0.001355   |   0.3 |  0.70
Modify  | 0.013854   | 0.015059   | 0.016469   |   0.8 |  9.07
Other   |            | 0.05965    |            |       | 35.94

Nlocal:             64 ave          67 max          60 min
Histogram: 1 0 3 0 0 0 0 1 0 3
Nghost:         62.375 ave          66 max          59 min
Histogram: 1 2 0 0 1 1 0 1 1 1
Neighs:        210.625 ave         227 max         200 min
Histogram: 1 2 1 0 0 3 0 0 0 1

Total # of neighbors = 1685
Ave neighs/atom = 3.2910156
Neighbor list builds = 0
Dangerous builds = 0
print           "${i} ${st} ${phi} ${pr} ${KEtot}" append ${logfile}
print           "${i} ${st} ${phi} ${pr} ${KEtot}" append compress_rate/compress_rate_0.0001/log_compress_rate_0.0001.txt
115 1200000 0.792401900060684 0.00056237932290217 9.88353059773899e-05
print           "${i} ${st} ${phi} ${pr} ${KEtot}" append ${pressfile}
print           "${i} ${st} ${phi} ${pr} ${KEtot}" append compress_rate/compress_rate_0.0001/press_phi_compress_rate_0.0001.txt
115 1200000 0.792401900060684 0.00056237932290217 9.88353059773899e-05
next            i
jump            SELF loop_compress
variable        i loop ${ncycle}
variable        i loop 150
# @before(压缩之前的我不关注)
change_box      all x scale ${scale} y scale ${scale} remap units box
change_box      all x scale 0.998 y scale ${scale} remap units box
change_box      all x scale 0.998 y scale 0.998 remap units box
Changing box ...
  orthogonal box = (3.5749116 3.5475061 -0.1) to (30.925619 30.953025 0.1)
  orthogonal box = (3.5749116 3.5749116 -0.1) to (30.925619 30.925619 0.1)
velocity        all set 0.0 0.0 0.0       # 压缩后清零速度，避免把上一轮残余动量带进来
# @after
run             ${compress_loop}        # 每轮给足够松弛时间
run             10000        
Generated 0 of 1 mixed pair_coeff terms from geometric mixing rule
Per MPI rank memory allocation (min/avg/max) = 11.24 | 11.24 | 11.24 Mbytes
   Step        Atoms          Lx             Ly           v_phi          Press          KinEng        c_ke_rot   
   1200000         512   27.350708      27.350708      0.79558104     31.366703      0              0            
   1205000         512   27.350708      27.350708      0.79558104     1.1000885      0.00065625101  0            
   1210000         512   27.350708      27.350708      0.79558104     0.00086340891  3.2443029e-07  0            
Loop time of 0.154498 on 8 procs for 10000 steps with 512 atoms

Performance: 279614.818 tau/day, 64725.652 timesteps/s, 33.140 Matom-step/s
96.1% CPU use with 8 MPI tasks x 1 OpenMP threads

MPI task timing breakdown:
Section |  min time  |  avg time  |  max time  |%varavg| %total
---------------------------------------------------------------
Pair    | 0.029206   | 0.03314    | 0.038738   |   1.6 | 21.45
Neigh   | 0          | 0          | 0          |   0.0 |  0.00
Comm    | 0.049767   | 0.051228   | 0.053029   |   0.5 | 33.16
Output  | 0.001049   | 0.0013916  | 0.001673   |   0.5 |  0.90
Modify  | 0.01174    | 0.013327   | 0.014518   |   0.7 |  8.63
Other   |            | 0.05541    |            |       | 35.87

Nlocal:             64 ave          67 max          60 min
Histogram: 1 0 2 0 1 1 0 0 0 3
Nghost:          62.25 ave          66 max          58 min
Histogram: 1 0 1 1 0 1 1 2 0 1
Neighs:        211.875 ave         227 max         201 min
Histogram: 1 2 1 0 0 2 1 0 0 1

Total # of neighbors = 1695
Ave neighs/atom = 3.3105469
Neighbor list builds = 0
Dangerous builds = 0
print           "${i} ${st} ${phi} ${pr} ${KEtot}" append ${logfile}
print           "${i} ${st} ${phi} ${pr} ${KEtot}" append compress_rate/compress_rate_0.0001/log_compress_rate_0.0001.txt
116 1210000 0.795581041904133 0.000863408905037911 0.000166108308436534
print           "${i} ${st} ${phi} ${pr} ${KEtot}" append ${pressfile}
print           "${i} ${st} ${phi} ${pr} ${KEtot}" append compress_rate/compress_rate_0.0001/press_phi_compress_rate_0.0001.txt
116 1210000 0.795581041904133 0.000863408905037911 0.000166108308436534
next            i
jump            SELF loop_compress
variable        i loop ${ncycle}
variable        i loop 150
# @before(压缩之前的我不关注)
change_box      all x scale ${scale} y scale ${scale} remap units box
change_box      all x scale 0.998 y scale ${scale} remap units box
change_box      all x scale 0.998 y scale 0.998 remap units box
Changing box ...
  orthogonal box = (3.6022623 3.5749116 -0.1) to (30.898268 30.925619 0.1)
  orthogonal box = (3.6022623 3.6022623 -0.1) to (30.898268 30.898268 0.1)
velocity        all set 0.0 0.0 0.0       # 压缩后清零速度，避免把上一轮残余动量带进来
# @after
run             ${compress_loop}        # 每轮给足够松弛时间
run             10000        
Generated 0 of 1 mixed pair_coeff terms from geometric mixing rule
Per MPI rank memory allocation (min/avg/max) = 11.24 | 11.24 | 11.24 Mbytes
   Step        Atoms          Lx             Ly           v_phi          Press          KinEng        c_ke_rot   
   1210000         512   27.296006      27.296006      0.79877294     32.67958       0              0            
   1215000         512   27.296006      27.296006      0.79877294     1.2744718      0.00082093884  0            
   1220000         512   27.296006      27.296006      0.79877294     0.0014041401   4.1610532e-07  0            
Loop time of 0.150066 on 8 procs for 10000 steps with 512 atoms

Performance: 287873.096 tau/day, 66637.291 timesteps/s, 34.118 Matom-step/s
92.4% CPU use with 8 MPI tasks x 1 OpenMP threads

MPI task timing breakdown:
Section |  min time  |  avg time  |  max time  |%varavg| %total
---------------------------------------------------------------
Pair    | 0.031472   | 0.033907   | 0.037328   |   1.0 | 22.59
Neigh   | 0          | 0          | 0          |   0.0 |  0.00
Comm    | 0.047127   | 0.049151   | 0.050917   |   0.6 | 32.75
Output  | 0.000985   | 0.0012919  | 0.001628   |   0.6 |  0.86
Modify  | 0.012857   | 0.013618   | 0.014705   |   0.6 |  9.07
Other   |            | 0.0521     |            |       | 34.72

Nlocal:             64 ave          67 max          60 min
Histogram: 1 0 2 0 1 0 0 1 1 2
Nghost:           63.5 ave          66 max          60 min
Histogram: 1 1 0 0 0 1 2 0 2 1
Neighs:        212.625 ave         227 max         200 min
Histogram: 1 0 2 1 0 2 0 1 0 1

Total # of neighbors = 1701
Ave neighs/atom = 3.3222656
Neighbor list builds = 0
Dangerous builds = 0
print           "${i} ${st} ${phi} ${pr} ${KEtot}" append ${logfile}
print           "${i} ${st} ${phi} ${pr} ${KEtot}" append compress_rate/compress_rate_0.0001/log_compress_rate_0.0001.txt
117 1220000 0.798772938566646 0.00140414006794527 0.000213045926011471
print           "${i} ${st} ${phi} ${pr} ${KEtot}" append ${pressfile}
print           "${i} ${st} ${phi} ${pr} ${KEtot}" append compress_rate/compress_rate_0.0001/press_phi_compress_rate_0.0001.txt
117 1220000 0.798772938566646 0.00140414006794527 0.000213045926011471
next            i
jump            SELF loop_compress
variable        i loop ${ncycle}
variable        i loop 150
# @before(压缩之前的我不关注)
change_box      all x scale ${scale} y scale ${scale} remap units box
change_box      all x scale 0.998 y scale ${scale} remap units box
change_box      all x scale 0.998 y scale 0.998 remap units box
Changing box ...
  orthogonal box = (3.6295583 3.6022623 -0.1) to (30.870972 30.898268 0.1)
  orthogonal box = (3.6295583 3.6295583 -0.1) to (30.870972 30.870972 0.1)
velocity        all set 0.0 0.0 0.0       # 压缩后清零速度，避免把上一轮残余动量带进来
# @after
run             ${compress_loop}        # 每轮给足够松弛时间
run             10000        
Generated 0 of 1 mixed pair_coeff terms from geometric mixing rule
Per MPI rank memory allocation (min/avg/max) = 11.24 | 11.24 | 11.24 Mbytes
   Step        Atoms          Lx             Ly           v_phi          Press          KinEng        c_ke_rot   
   1220000         512   27.241414      27.241414      0.80197764     33.589399      0              0            
   1225000         512   27.241414      27.241414      0.80197764     1.5596365      0.00083733236  0            
   1230000         512   27.241414      27.241414      0.80197764     0.0017700847   5.4772137e-07  0            
Loop time of 0.152985 on 8 procs for 10000 steps with 512 atoms

Performance: 282380.164 tau/day, 65365.779 timesteps/s, 33.467 Matom-step/s
99.6% CPU use with 8 MPI tasks x 1 OpenMP threads

MPI task timing breakdown:
Section |  min time  |  avg time  |  max time  |%varavg| %total
---------------------------------------------------------------
Pair    | 0.032141   | 0.035069   | 0.039237   |   1.3 | 22.92
Neigh   | 0          | 0          | 0          |   0.0 |  0.00
Comm    | 0.048031   | 0.050235   | 0.051427   |   0.5 | 32.84
Output  | 0.001057   | 0.0012124  | 0.001358   |   0.3 |  0.79
Modify  | 0.01205    | 0.013329   | 0.014623   |   0.6 |  8.71
Other   |            | 0.05314    |            |       | 34.74

Nlocal:             64 ave          67 max          59 min
Histogram: 1 0 0 1 0 2 0 1 1 2
Nghost:          63.75 ave          67 max          60 min
Histogram: 1 1 0 0 0 4 0 0 1 1
Neighs:        214.125 ave         229 max         199 min
Histogram: 1 1 0 1 1 0 1 1 1 1

Total # of neighbors = 1713
Ave neighs/atom = 3.3457031
Neighbor list builds = 0
Dangerous builds = 0
print           "${i} ${st} ${phi} ${pr} ${KEtot}" append ${logfile}
print           "${i} ${st} ${phi} ${pr} ${KEtot}" append compress_rate/compress_rate_0.0001/log_compress_rate_0.0001.txt
118 1230000 0.801977641220965 0.00177008467872218 0.000280433341653456
print           "${i} ${st} ${phi} ${pr} ${KEtot}" append ${pressfile}
print           "${i} ${st} ${phi} ${pr} ${KEtot}" append compress_rate/compress_rate_0.0001/press_phi_compress_rate_0.0001.txt
118 1230000 0.801977641220965 0.00177008467872218 0.000280433341653456
next            i
jump            SELF loop_compress
variable        i loop ${ncycle}
variable        i loop 150
# @before(压缩之前的我不关注)
change_box      all x scale ${scale} y scale ${scale} remap units box
change_box      all x scale 0.998 y scale ${scale} remap units box
change_box      all x scale 0.998 y scale 0.998 remap units box
Changing box ...
  orthogonal box = (3.6567997 3.6295583 -0.1) to (30.843731 30.870972 0.1)
  orthogonal box = (3.6567997 3.6567997 -0.1) to (30.843731 30.843731 0.1)
velocity        all set 0.0 0.0 0.0       # 压缩后清零速度，避免把上一轮残余动量带进来
# @after
run             ${compress_loop}        # 每轮给足够松弛时间
run             10000        
Generated 0 of 1 mixed pair_coeff terms from geometric mixing rule
Per MPI rank memory allocation (min/avg/max) = 11.24 | 11.24 | 11.24 Mbytes
   Step        Atoms          Lx             Ly           v_phi          Press          KinEng        c_ke_rot   
   1230000         512   27.186931      27.186931      0.8051952      34.105648      0              0            
   1235000         512   27.186931      27.186931      0.8051952      4.0589115      0.0016329463   0            
   1240000         512   27.186931      27.186931      0.8051952      0.2046387      1.4521497e-05  0            
Loop time of 0.168622 on 8 procs for 10000 steps with 512 atoms

Performance: 256194.138 tau/day, 59304.199 timesteps/s, 30.364 Matom-step/s
99.6% CPU use with 8 MPI tasks x 1 OpenMP threads

MPI task timing breakdown:
Section |  min time  |  avg time  |  max time  |%varavg| %total
---------------------------------------------------------------
Pair    | 0.039864   | 0.042538   | 0.046963   |   1.0 | 25.23
Neigh   | 0          | 0          | 0          |   0.0 |  0.00
Comm    | 0.050915   | 0.053299   | 0.054831   |   0.5 | 31.61
Output  | 0.000998   | 0.0012653  | 0.00165    |   0.5 |  0.75
Modify  | 0.011762   | 0.013389   | 0.014307   |   0.6 |  7.94
Other   |            | 0.05813    |            |       | 34.47

Nlocal:             64 ave          67 max          59 min
Histogram: 1 0 0 0 0 3 0 1 2 1
Nghost:         63.625 ave          67 max          60 min
Histogram: 1 0 2 0 1 1 0 1 1 1
Neighs:        214.625 ave         230 max         203 min
Histogram: 2 0 2 0 0 2 0 1 0 1

Total # of neighbors = 1717
Ave neighs/atom = 3.3535156
Neighbor list builds = 0
Dangerous builds = 0
print           "${i} ${st} ${phi} ${pr} ${KEtot}" append ${logfile}
print           "${i} ${st} ${phi} ${pr} ${KEtot}" append compress_rate/compress_rate_0.0001/log_compress_rate_0.0001.txt
119 1240000 0.80519520124514 0.204638701397129 0.00743500653680175
print           "${i} ${st} ${phi} ${pr} ${KEtot}" append ${pressfile}
print           "${i} ${st} ${phi} ${pr} ${KEtot}" append compress_rate/compress_rate_0.0001/press_phi_compress_rate_0.0001.txt
119 1240000 0.80519520124514 0.204638701397129 0.00743500653680175
next            i
jump            SELF loop_compress
variable        i loop ${ncycle}
variable        i loop 150
# @before(压缩之前的我不关注)
change_box      all x scale ${scale} y scale ${scale} remap units box
change_box      all x scale 0.998 y scale ${scale} remap units box
change_box      all x scale 0.998 y scale 0.998 remap units box
Changing box ...
  orthogonal box = (3.6839867 3.6567997 -0.1) to (30.816544 30.843731 0.1)
  orthogonal box = (3.6839867 3.6839867 -0.1) to (30.816544 30.816544 0.1)
velocity        all set 0.0 0.0 0.0       # 压缩后清零速度，避免把上一轮残余动量带进来
# @after
run             ${compress_loop}        # 每轮给足够松弛时间
run             10000        
Generated 0 of 1 mixed pair_coeff terms from geometric mixing rule
Per MPI rank memory allocation (min/avg/max) = 11.24 | 11.24 | 11.24 Mbytes
   Step        Atoms          Lx             Ly           v_phi          Press          KinEng        c_ke_rot   
   1240000         512   27.132557      27.132557      0.80842567     35.964323      0              0            
   1245000         512   27.132557      27.132557      0.80842567     3.1903423      0.0015619524   0            
   1250000         512   27.132557      27.132557      0.80842567     0.04744879     4.5679886e-06  0            
Loop time of 0.170076 on 8 procs for 10000 steps with 512 atoms

Performance: 254004.466 tau/day, 58797.330 timesteps/s, 30.104 Matom-step/s
97.6% CPU use with 8 MPI tasks x 1 OpenMP threads

MPI task timing breakdown:
Section |  min time  |  avg time  |  max time  |%varavg| %total
---------------------------------------------------------------
Pair    | 0.036854   | 0.041115   | 0.045652   |   1.5 | 24.17
Neigh   | 0          | 0          | 0          |   0.0 |  0.00
Comm    | 0.049801   | 0.052849   | 0.055607   |   0.7 | 31.07
Output  | 0.000952   | 0.0010996  | 0.001262   |   0.3 |  0.65
Modify  | 0.012261   | 0.013412   | 0.014645   |   0.6 |  7.89
Other   |            | 0.0616     |            |       | 36.22

Nlocal:             64 ave          67 max          59 min
Histogram: 1 0 0 0 0 3 0 1 2 1
Nghost:         64.125 ave          67 max          61 min
Histogram: 1 2 0 1 0 1 0 0 0 3
Neighs:         215.25 ave         230 max         203 min
Histogram: 2 0 0 1 2 1 0 1 0 1

Total # of neighbors = 1722
Ave neighs/atom = 3.3632812
Neighbor list builds = 0
Dangerous builds = 0
print           "${i} ${st} ${phi} ${pr} ${KEtot}" append ${logfile}
print           "${i} ${st} ${phi} ${pr} ${KEtot}" append compress_rate/compress_rate_0.0001/log_compress_rate_0.0001.txt
120 1250000 0.808425670223353 0.0474487901204456 0.0023388101808652
print           "${i} ${st} ${phi} ${pr} ${KEtot}" append ${pressfile}
print           "${i} ${st} ${phi} ${pr} ${KEtot}" append compress_rate/compress_rate_0.0001/press_phi_compress_rate_0.0001.txt
120 1250000 0.808425670223353 0.0474487901204456 0.0023388101808652
next            i
jump            SELF loop_compress
variable        i loop ${ncycle}
variable        i loop 150
# @before(压缩之前的我不关注)
change_box      all x scale ${scale} y scale ${scale} remap units box
change_box      all x scale 0.998 y scale ${scale} remap units box
change_box      all x scale 0.998 y scale 0.998 remap units box
Changing box ...
  orthogonal box = (3.7111192 3.6839867 -0.1) to (30.789412 30.816544 0.1)
  orthogonal box = (3.7111192 3.7111192 -0.1) to (30.789412 30.789412 0.1)
velocity        all set 0.0 0.0 0.0       # 压缩后清零速度，避免把上一轮残余动量带进来
# @after
run             ${compress_loop}        # 每轮给足够松弛时间
run             10000        
Generated 0 of 1 mixed pair_coeff terms from geometric mixing rule
Per MPI rank memory allocation (min/avg/max) = 11.24 | 11.24 | 11.24 Mbytes
   Step        Atoms          Lx             Ly           v_phi          Press          KinEng        c_ke_rot   
   1250000         512   27.078292      27.078292      0.8116691      35.648302      0              0            
   1255000         512   27.078292      27.078292      0.8116691      4.5051184      0.0015398251   0            
   1260000         512   27.078292      27.078292      0.8116691      0.51124204     2.8215503e-05  0            
Loop time of 0.162047 on 8 procs for 10000 steps with 512 atoms

Performance: 266589.734 tau/day, 61710.587 timesteps/s, 31.596 Matom-step/s
98.8% CPU use with 8 MPI tasks x 1 OpenMP threads

MPI task timing breakdown:
Section |  min time  |  avg time  |  max time  |%varavg| %total
---------------------------------------------------------------
Pair    | 0.036103   | 0.040701   | 0.046126   |   1.6 | 25.12
Neigh   | 0          | 0          | 0          |   0.0 |  0.00
Comm    | 0.045453   | 0.049254   | 0.055248   |   1.4 | 30.39
Output  | 0.000911   | 0.0012165  | 0.001562   |   0.6 |  0.75
Modify  | 0.011851   | 0.012717   | 0.013679   |   0.6 |  7.85
Other   |            | 0.05816    |            |       | 35.89

Nlocal:             64 ave          67 max          59 min
Histogram: 1 0 0 1 0 2 0 0 3 1
Nghost:         64.625 ave          69 max          62 min
Histogram: 2 1 2 0 0 1 0 1 0 1
Neighs:         217.75 ave         232 max         203 min
Histogram: 1 0 1 1 0 3 0 0 1 1

Total # of neighbors = 1742
Ave neighs/atom = 3.4023438
Neighbor list builds = 0
Dangerous builds = 0
print           "${i} ${st} ${phi} ${pr} ${KEtot}" append ${logfile}
print           "${i} ${st} ${phi} ${pr} ${KEtot}" append compress_rate/compress_rate_0.0001/log_compress_rate_0.0001.txt
121 1260000 0.81166909994674 0.51124204423983 0.0144463376250942
print           "${i} ${st} ${phi} ${pr} ${KEtot}" append ${pressfile}
print           "${i} ${st} ${phi} ${pr} ${KEtot}" append compress_rate/compress_rate_0.0001/press_phi_compress_rate_0.0001.txt
121 1260000 0.81166909994674 0.51124204423983 0.0144463376250942
next            i
jump            SELF loop_compress
variable        i loop ${ncycle}
variable        i loop 150
# @before(压缩之前的我不关注)
change_box      all x scale ${scale} y scale ${scale} remap units box
change_box      all x scale 0.998 y scale ${scale} remap units box
change_box      all x scale 0.998 y scale 0.998 remap units box
Changing box ...
  orthogonal box = (3.7381975 3.7111192 -0.1) to (30.762333 30.789412 0.1)
  orthogonal box = (3.7381975 3.7381975 -0.1) to (30.762333 30.762333 0.1)
velocity        all set 0.0 0.0 0.0       # 压缩后清零速度，避免把上一轮残余动量带进来
# @after
run             ${compress_loop}        # 每轮给足够松弛时间
run             10000        
Generated 0 of 1 mixed pair_coeff terms from geometric mixing rule
Per MPI rank memory allocation (min/avg/max) = 11.24 | 11.24 | 11.24 Mbytes
   Step        Atoms          Lx             Ly           v_phi          Press          KinEng        c_ke_rot   
   1260000         512   27.024136      27.024136      0.81492554     37.135235      0              0            
   1265000         512   27.024136      27.024136      0.81492554     5.6139524      0.0020873006   0            
   1270000         512   27.024136      27.024136      0.81492554     1.0976004      6.6453546e-05  0            
Loop time of 0.168401 on 8 procs for 10000 steps with 512 atoms

Performance: 256530.543 tau/day, 59382.070 timesteps/s, 30.404 Matom-step/s
95.1% CPU use with 8 MPI tasks x 1 OpenMP threads

MPI task timing breakdown:
Section |  min time  |  avg time  |  max time  |%varavg| %total
---------------------------------------------------------------
Pair    | 0.043297   | 0.049732   | 0.055685   |   1.8 | 29.53
Neigh   | 0          | 0          | 0          |   0.0 |  0.00
Comm    | 0.048298   | 0.051752   | 0.055113   |   1.0 | 30.73
Output  | 0.000939   | 0.0011489  | 0.001404   |   0.5 |  0.68
Modify  | 0.013477   | 0.016459   | 0.017514   |   1.0 |  9.77
Other   |            | 0.04931    |            |       | 29.28

Nlocal:             64 ave          67 max          59 min
Histogram: 1 0 0 1 0 2 0 0 3 1
Nghost:         65.875 ave          71 max          63 min
Histogram: 3 0 0 1 0 3 0 0 0 1
Neighs:        217.125 ave         233 max         205 min
Histogram: 1 2 0 1 1 1 0 1 0 1

Total # of neighbors = 1737
Ave neighs/atom = 3.3925781
Neighbor list builds = 0
Dangerous builds = 0
print           "${i} ${st} ${phi} ${pr} ${KEtot}" append ${logfile}
print           "${i} ${st} ${phi} ${pr} ${KEtot}" append compress_rate/compress_rate_0.0001/log_compress_rate_0.0001.txt
122 1270000 0.814925542414227 1.0976004263314 0.034024215358011
print           "${i} ${st} ${phi} ${pr} ${KEtot}" append ${pressfile}
print           "${i} ${st} ${phi} ${pr} ${KEtot}" append compress_rate/compress_rate_0.0001/press_phi_compress_rate_0.0001.txt
122 1270000 0.814925542414227 1.0976004263314 0.034024215358011
next            i
jump            SELF loop_compress
variable        i loop ${ncycle}
variable        i loop 150
# @before(压缩之前的我不关注)
change_box      all x scale ${scale} y scale ${scale} remap units box
change_box      all x scale 0.998 y scale ${scale} remap units box
change_box      all x scale 0.998 y scale 0.998 remap units box
Changing box ...
  orthogonal box = (3.7652217 3.7381975 -0.1) to (30.735309 30.762333 0.1)
  orthogonal box = (3.7652217 3.7652217 -0.1) to (30.735309 30.735309 0.1)
velocity        all set 0.0 0.0 0.0       # 压缩后清零速度，避免把上一轮残余动量带进来
# @after
run             ${compress_loop}        # 每轮给足够松弛时间
run             10000        
Generated 0 of 1 mixed pair_coeff terms from geometric mixing rule
Per MPI rank memory allocation (min/avg/max) = 11.24 | 11.24 | 11.24 Mbytes
   Step        Atoms          Lx             Ly           v_phi          Press          KinEng        c_ke_rot   
   1270000         512   26.970087      26.970087      0.81819505     37.753804      0              0            
   1275000         512   26.970087      26.970087      0.81819505     9.3720294      0.0029208399   0            
   1280000         512   26.970087      26.970087      0.81819505     4.0365309      0.00032491951  0            
Loop time of 0.170392 on 8 procs for 10000 steps with 512 atoms

Performance: 253533.216 tau/day, 58688.244 timesteps/s, 30.048 Matom-step/s
97.4% CPU use with 8 MPI tasks x 1 OpenMP threads

MPI task timing breakdown:
Section |  min time  |  avg time  |  max time  |%varavg| %total
---------------------------------------------------------------
Pair    | 0.043984   | 0.052545   | 0.06368    |   2.5 | 30.84
Neigh   | 0          | 0          | 0          |   0.0 |  0.00
Comm    | 0.049219   | 0.051248   | 0.052889   |   0.6 | 30.08
Output  | 0.001388   | 0.0017934  | 0.002139   |   0.6 |  1.05
Modify  | 0.013727   | 0.016859   | 0.020044   |   1.6 |  9.89
Other   |            | 0.04795    |            |       | 28.14

Nlocal:             64 ave          67 max          59 min
Histogram: 1 0 0 1 0 2 0 0 3 1
Nghost:             66 ave          72 max          63 min
Histogram: 3 0 0 1 3 0 0 0 0 1
Neighs:          219.5 ave         232 max         205 min
Histogram: 1 0 1 1 1 1 0 1 1 1

Total # of neighbors = 1756
Ave neighs/atom = 3.4296875
Neighbor list builds = 0
Dangerous builds = 0
print           "${i} ${st} ${phi} ${pr} ${KEtot}" append ${logfile}
print           "${i} ${st} ${phi} ${pr} ${KEtot}" append compress_rate/compress_rate_0.0001/log_compress_rate_0.0001.txt
123 1280000 0.818195049833361 4.03653088888291 0.166358788436214
print           "${i} ${st} ${phi} ${pr} ${KEtot}" append ${pressfile}
print           "${i} ${st} ${phi} ${pr} ${KEtot}" append compress_rate/compress_rate_0.0001/press_phi_compress_rate_0.0001.txt
123 1280000 0.818195049833361 4.03653088888291 0.166358788436214
next            i
jump            SELF loop_compress
variable        i loop ${ncycle}
variable        i loop 150
# @before(压缩之前的我不关注)
change_box      all x scale ${scale} y scale ${scale} remap units box
change_box      all x scale 0.998 y scale ${scale} remap units box
change_box      all x scale 0.998 y scale 0.998 remap units box
Changing box ...
  orthogonal box = (3.7921917 3.7652217 -0.1) to (30.708339 30.735309 0.1)
  orthogonal box = (3.7921917 3.7921917 -0.1) to (30.708339 30.708339 0.1)
velocity        all set 0.0 0.0 0.0       # 压缩后清零速度，避免把上一轮残余动量带进来
# @after
run             ${compress_loop}        # 每轮给足够松弛时间
run             10000        
Generated 0 of 1 mixed pair_coeff terms from geometric mixing rule
Per MPI rank memory allocation (min/avg/max) = 11.24 | 11.24 | 11.24 Mbytes
   Step        Atoms          Lx             Ly           v_phi          Press          KinEng        c_ke_rot   
   1280000         512   26.916147      26.916147      0.82147767     42.0745        0              0            
   1285000         512   26.916147      26.916147      0.82147767     19.741718      0.0040491358   0            
   1290000         512   26.916147      26.916147      0.82147767     11.343973      0.0013946495   0            
Loop time of 0.161951 on 8 procs for 10000 steps with 512 atoms

Performance: 266747.144 tau/day, 61747.024 timesteps/s, 31.614 Matom-step/s
92.9% CPU use with 8 MPI tasks x 1 OpenMP threads

MPI task timing breakdown:
Section |  min time  |  avg time  |  max time  |%varavg| %total
---------------------------------------------------------------
Pair    | 0.043341   | 0.048561   | 0.052336   |   1.6 | 29.98
Neigh   | 0          | 0          | 0          |   0.0 |  0.00
Comm    | 0.046555   | 0.049107   | 0.052115   |   0.7 | 30.32
Output  | 0.000854   | 0.00099062 | 0.001147   |   0.0 |  0.61
Modify  | 0.012398   | 0.013907   | 0.015134   |   0.8 |  8.59
Other   |            | 0.04939    |            |       | 30.49

Nlocal:             64 ave          67 max          59 min
Histogram: 1 0 1 0 0 2 0 0 2 2
Nghost:          65.75 ave          72 max          62 min
Histogram: 1 2 0 1 1 1 1 0 0 1
Neighs:        221.625 ave         234 max         207 min
Histogram: 1 1 0 1 0 1 0 2 1 1

Total # of neighbors = 1773
Ave neighs/atom = 3.4628906
Neighbor list builds = 0
Dangerous builds = 0
print           "${i} ${st} ${phi} ${pr} ${KEtot}" append ${logfile}
print           "${i} ${st} ${phi} ${pr} ${KEtot}" append compress_rate/compress_rate_0.0001/log_compress_rate_0.0001.txt
124 1290000 0.821477674621147 11.3439734412693 0.714060520005116
print           "${i} ${st} ${phi} ${pr} ${KEtot}" append ${pressfile}
print           "${i} ${st} ${phi} ${pr} ${KEtot}" append compress_rate/compress_rate_0.0001/press_phi_compress_rate_0.0001.txt
124 1290000 0.821477674621147 11.3439734412693 0.714060520005116
next            i
jump            SELF loop_compress
variable        i loop ${ncycle}
variable        i loop 150
# @before(压缩之前的我不关注)
change_box      all x scale ${scale} y scale ${scale} remap units box
change_box      all x scale 0.998 y scale ${scale} remap units box
change_box      all x scale 0.998 y scale 0.998 remap units box
Changing box ...
  orthogonal box = (3.8191079 3.7921917 -0.1) to (30.681423 30.708339 0.1)
  orthogonal box = (3.8191079 3.8191079 -0.1) to (30.681423 30.681423 0.1)
velocity        all set 0.0 0.0 0.0       # 压缩后清零速度，避免把上一轮残余动量带进来
# @after
run             ${compress_loop}        # 每轮给足够松弛时间
run             10000        
Generated 0 of 1 mixed pair_coeff terms from geometric mixing rule
Per MPI rank memory allocation (min/avg/max) = 11.24 | 11.24 | 11.24 Mbytes
   Step        Atoms          Lx             Ly           v_phi          Press          KinEng        c_ke_rot   
   1290000         512   26.862315      26.862315      0.82477347     50.624279      0              0            
   1295000         512   26.862315      26.862315      0.82477347     27.229551      0.006680229    0            
   1300000         512   26.862315      26.862315      0.82477347     14.555776      0.00368319     0            
Loop time of 0.128151 on 8 procs for 10000 steps with 512 atoms

Performance: 337102.982 tau/day, 78033.098 timesteps/s, 39.953 Matom-step/s
108.2% CPU use with 8 MPI tasks x 1 OpenMP threads

MPI task timing breakdown:
Section |  min time  |  avg time  |  max time  |%varavg| %total
---------------------------------------------------------------
Pair    | 0.03482    | 0.04049    | 0.044518   |   1.6 | 31.60
Neigh   | 0          | 0          | 0          |   0.0 |  0.00
Comm    | 0.037537   | 0.040065   | 0.042551   |   0.8 | 31.26
Output  | 0.001275   | 0.0014674  | 0.00174    |   0.4 |  1.15
Modify  | 0.010297   | 0.012029   | 0.013289   |   0.7 |  9.39
Other   |            | 0.0341     |            |       | 26.61

Nlocal:             64 ave          67 max          59 min
Histogram: 1 0 1 0 0 2 0 0 2 2
Nghost:             66 ave          73 max          63 min
Histogram: 3 0 0 2 2 0 0 0 0 1
Neighs:        221.625 ave         233 max         206 min
Histogram: 1 1 0 0 2 0 0 1 0 3

Total # of neighbors = 1773
Ave neighs/atom = 3.4628906
Neighbor list builds = 0
Dangerous builds = 0
print           "${i} ${st} ${phi} ${pr} ${KEtot}" append ${logfile}
print           "${i} ${st} ${phi} ${pr} ${KEtot}" append compress_rate/compress_rate_0.0001/log_compress_rate_0.0001.txt
125 1300000 0.824773469404889 14.555775709423 1.8857932699601
print           "${i} ${st} ${phi} ${pr} ${KEtot}" append ${pressfile}
print           "${i} ${st} ${phi} ${pr} ${KEtot}" append compress_rate/compress_rate_0.0001/press_phi_compress_rate_0.0001.txt
125 1300000 0.824773469404889 14.555775709423 1.8857932699601
next            i
jump            SELF loop_compress
variable        i loop ${ncycle}
variable        i loop 150
# @before(压缩之前的我不关注)
change_box      all x scale ${scale} y scale ${scale} remap units box
change_box      all x scale 0.998 y scale ${scale} remap units box
change_box      all x scale 0.998 y scale 0.998 remap units box
Changing box ...
  orthogonal box = (3.8459702 3.8191079 -0.1) to (30.654561 30.681423 0.1)
  orthogonal box = (3.8459702 3.8459702 -0.1) to (30.654561 30.654561 0.1)
velocity        all set 0.0 0.0 0.0       # 压缩后清零速度，避免把上一轮残余动量带进来
# @after
run             ${compress_loop}        # 每轮给足够松弛时间
run             10000        
Generated 0 of 1 mixed pair_coeff terms from geometric mixing rule
Per MPI rank memory allocation (min/avg/max) = 11.24 | 11.24 | 11.24 Mbytes
   Step        Atoms          Lx             Ly           v_phi          Press          KinEng        c_ke_rot   
   1300000         512   26.80859       26.80859       0.82808249     54.410546      0              0            
   1305000         512   26.80859       26.80859       0.82808249     24.174117      0.0069719434   0            
   1310000         512   26.80859       26.80859       0.82808249     13.810476      0.0023091908   0            
Loop time of 0.152508 on 8 procs for 10000 steps with 512 atoms

Performance: 283263.597 tau/day, 65570.277 timesteps/s, 33.572 Matom-step/s
102.5% CPU use with 8 MPI tasks x 1 OpenMP threads

MPI task timing breakdown:
Section |  min time  |  avg time  |  max time  |%varavg| %total
---------------------------------------------------------------
Pair    | 0.036852   | 0.043748   | 0.048029   |   1.7 | 28.69
Neigh   | 1.5e-05    | 1.75e-05   | 1.9e-05    |   0.0 |  0.01
Comm    | 0.041894   | 0.045706   | 0.050045   |   1.2 | 29.97
Output  | 0.000756   | 0.00096337 | 0.001183   |   0.0 |  0.63
Modify  | 0.010686   | 0.012492   | 0.013783   |   0.8 |  8.19
Other   |            | 0.04958    |            |       | 32.51

Nlocal:             64 ave          68 max          59 min
Histogram: 1 0 0 1 2 0 1 2 0 1
Nghost:         65.125 ave          74 max          61 min
Histogram: 2 0 3 1 1 0 0 0 0 1
Neighs:         222.75 ave         236 max         205 min
Histogram: 1 0 0 2 0 1 0 2 1 1

Total # of neighbors = 1782
Ave neighs/atom = 3.4804688
Neighbor list builds = 1
Dangerous builds = 0
print           "${i} ${st} ${phi} ${pr} ${KEtot}" append ${logfile}
print           "${i} ${st} ${phi} ${pr} ${KEtot}" append compress_rate/compress_rate_0.0001/log_compress_rate_0.0001.txt
126 1310000 0.828082487023034 13.8104759803148 1.18230570069486
print           "${i} ${st} ${phi} ${pr} ${KEtot}" append ${pressfile}
print           "${i} ${st} ${phi} ${pr} ${KEtot}" append compress_rate/compress_rate_0.0001/press_phi_compress_rate_0.0001.txt
126 1310000 0.828082487023034 13.8104759803148 1.18230570069486
next            i
jump            SELF loop_compress
variable        i loop ${ncycle}
variable        i loop 150
# @before(压缩之前的我不关注)
change_box      all x scale ${scale} y scale ${scale} remap units box
change_box      all x scale 0.998 y scale ${scale} remap units box
change_box      all x scale 0.998 y scale 0.998 remap units box
Changing box ...
  orthogonal box = (3.8727788 3.8459702 -0.1) to (30.627752 30.654561 0.1)
  orthogonal box = (3.8727788 3.8727788 -0.1) to (30.627752 30.627752 0.1)
velocity        all set 0.0 0.0 0.0       # 压缩后清零速度，避免把上一轮残余动量带进来
# @after
run             ${compress_loop}        # 每轮给足够松弛时间
run             10000        
Generated 0 of 1 mixed pair_coeff terms from geometric mixing rule
Per MPI rank memory allocation (min/avg/max) = 11.24 | 11.24 | 11.24 Mbytes
   Step        Atoms          Lx             Ly           v_phi          Press          KinEng        c_ke_rot   
   1310000         512   26.754973      26.754973      0.83140478     54.227302      0              0            
   1315000         512   26.754973      26.754973      0.83140478     29.332178      0.0064057063   0            
   1320000         512   26.754973      26.754973      0.83140478     20.931088      0.002659312    0            
Loop time of 0.180895 on 8 procs for 10000 steps with 512 atoms

Performance: 238811.911 tau/day, 55280.535 timesteps/s, 28.304 Matom-step/s
92.9% CPU use with 8 MPI tasks x 1 OpenMP threads

MPI task timing breakdown:
Section |  min time  |  avg time  |  max time  |%varavg| %total
---------------------------------------------------------------
Pair    | 0.043479   | 0.05115    | 0.055998   |   1.6 | 28.28
Neigh   | 0          | 0          | 0          |   0.0 |  0.00
Comm    | 0.049615   | 0.052961   | 0.055382   |   0.7 | 29.28
Output  | 0.001119   | 0.0015591  | 0.002022   |   0.7 |  0.86
Modify  | 0.012344   | 0.014407   | 0.015286   |   0.7 |  7.96
Other   |            | 0.06082    |            |       | 33.62

Nlocal:             64 ave          68 max          59 min
Histogram: 1 0 0 1 2 0 1 2 0 1
Nghost:         65.125 ave          74 max          61 min
Histogram: 2 0 3 1 1 0 0 0 0 1
Neighs:          222.5 ave         236 max         206 min
Histogram: 1 0 0 2 1 0 1 1 1 1

Total # of neighbors = 1780
Ave neighs/atom = 3.4765625
Neighbor list builds = 0
Dangerous builds = 0
print           "${i} ${st} ${phi} ${pr} ${KEtot}" append ${logfile}
print           "${i} ${st} ${phi} ${pr} ${KEtot}" append compress_rate/compress_rate_0.0001/log_compress_rate_0.0001.txt
127 1320000 0.831404780526015 20.9310884836245 1.3615677199538
print           "${i} ${st} ${phi} ${pr} ${KEtot}" append ${pressfile}
print           "${i} ${st} ${phi} ${pr} ${KEtot}" append compress_rate/compress_rate_0.0001/press_phi_compress_rate_0.0001.txt
127 1320000 0.831404780526015 20.9310884836245 1.3615677199538
next            i
jump            SELF loop_compress
variable        i loop ${ncycle}
variable        i loop 150
# @before(压缩之前的我不关注)
change_box      all x scale ${scale} y scale ${scale} remap units box
change_box      all x scale 0.998 y scale ${scale} remap units box
change_box      all x scale 0.998 y scale 0.998 remap units box
Changing box ...
  orthogonal box = (3.8995338 3.8727788 -0.1) to (30.600997 30.627752 0.1)
  orthogonal box = (3.8995338 3.8995338 -0.1) to (30.600997 30.600997 0.1)
velocity        all set 0.0 0.0 0.0       # 压缩后清零速度，避免把上一轮残余动量带进来
# @after
run             ${compress_loop}        # 每轮给足够松弛时间
run             10000        
Generated 0 of 1 mixed pair_coeff terms from geometric mixing rule
Per MPI rank memory allocation (min/avg/max) = 11.24 | 11.24 | 11.24 Mbytes
   Step        Atoms          Lx             Ly           v_phi          Press          KinEng        c_ke_rot   
   1320000         512   26.701463      26.701463      0.8347404      62.394462      0              0            
   1325000         512   26.701463      26.701463      0.8347404      41.501124      0.0048311068   0            
   1330000         512   26.701463      26.701463      0.8347404      36.7007        0.0024109816   0            
Loop time of 0.162604 on 8 procs for 10000 steps with 512 atoms

Performance: 265676.325 tau/day, 61499.149 timesteps/s, 31.488 Matom-step/s
103.3% CPU use with 8 MPI tasks x 1 OpenMP threads

MPI task timing breakdown:
Section |  min time  |  avg time  |  max time  |%varavg| %total
---------------------------------------------------------------
Pair    | 0.042115   | 0.047169   | 0.051895   |   1.5 | 29.01
Neigh   | 0          | 0          | 0          |   0.0 |  0.00
Comm    | 0.045715   | 0.048881   | 0.052847   |   1.0 | 30.06
Output  | 0.0007     | 0.00084763 | 0.001084   |   0.0 |  0.52
Modify  | 0.011396   | 0.013296   | 0.014669   |   0.7 |  8.18
Other   |            | 0.05241    |            |       | 32.23

Nlocal:             64 ave          68 max          59 min
Histogram: 1 0 0 2 0 1 1 2 0 1
Nghost:         65.625 ave          74 max          60 min
Histogram: 1 0 3 1 0 2 0 0 0 1
Neighs:        222.875 ave         237 max         206 min
Histogram: 1 0 0 1 2 0 1 2 0 1

Total # of neighbors = 1783
Ave neighs/atom = 3.4824219
Neighbor list builds = 0
Dangerous builds = 0
print           "${i} ${st} ${phi} ${pr} ${KEtot}" append ${logfile}
print           "${i} ${st} ${phi} ${pr} ${KEtot}" append compress_rate/compress_rate_0.0001/log_compress_rate_0.0001.txt
128 1330000 0.834740403177111 36.7006998431479 1.23442257268115
print           "${i} ${st} ${phi} ${pr} ${KEtot}" append ${pressfile}
print           "${i} ${st} ${phi} ${pr} ${KEtot}" append compress_rate/compress_rate_0.0001/press_phi_compress_rate_0.0001.txt
128 1330000 0.834740403177111 36.7006998431479 1.23442257268115
next            i
jump            SELF loop_compress
variable        i loop ${ncycle}
variable        i loop 150
# @before(压缩之前的我不关注)
change_box      all x scale ${scale} y scale ${scale} remap units box
change_box      all x scale 0.998 y scale ${scale} remap units box
change_box      all x scale 0.998 y scale 0.998 remap units box
Changing box ...
  orthogonal box = (3.9262352 3.8995338 -0.1) to (30.574296 30.600997 0.1)
  orthogonal box = (3.9262352 3.9262352 -0.1) to (30.574296 30.574296 0.1)
velocity        all set 0.0 0.0 0.0       # 压缩后清零速度，避免把上一轮残余动量带进来
# @after
run             ${compress_loop}        # 每轮给足够松弛时间
run             10000        
Generated 0 of 1 mixed pair_coeff terms from geometric mixing rule
Per MPI rank memory allocation (min/avg/max) = 11.24 | 11.24 | 11.24 Mbytes
   Step        Atoms          Lx             Ly           v_phi          Press          KinEng        c_ke_rot   
   1330000         512   26.64806       26.64806       0.83808941     79.355008      0              0            
   1335000         512   26.64806       26.64806       0.83808941     56.957475      0.012515351    0            
   1340000         512   26.64806       26.64806       0.83808941     49.771407      0.0040973448   0            
Loop time of 0.1514 on 8 procs for 10000 steps with 512 atoms

Performance: 285337.563 tau/day, 66050.362 timesteps/s, 33.818 Matom-step/s
99.3% CPU use with 8 MPI tasks x 1 OpenMP threads

MPI task timing breakdown:
Section |  min time  |  avg time  |  max time  |%varavg| %total
---------------------------------------------------------------
Pair    | 0.04165    | 0.04564    | 0.049861   |   1.3 | 30.15
Neigh   | 0          | 0          | 0          |   0.0 |  0.00
Comm    | 0.043833   | 0.045666   | 0.04817    |   0.6 | 30.16
Output  | 0.000977   | 0.0012544  | 0.001477   |   0.4 |  0.83
Modify  | 0.011257   | 0.012745   | 0.013584   |   0.6 |  8.42
Other   |            | 0.04609    |            |       | 30.45

Nlocal:             64 ave          67 max          59 min
Histogram: 1 0 0 1 0 1 1 1 2 1
Nghost:         66.125 ave          73 max          61 min
Histogram: 1 2 1 0 0 2 1 0 0 1
Neighs:        223.125 ave         232 max         205 min
Histogram: 1 0 0 0 2 0 1 0 1 3

Total # of neighbors = 1785
Ave neighs/atom = 3.4863281
Neighbor list builds = 0
Dangerous builds = 0
print           "${i} ${st} ${phi} ${pr} ${KEtot}" append ${logfile}
print           "${i} ${st} ${phi} ${pr} ${KEtot}" append compress_rate/compress_rate_0.0001/log_compress_rate_0.0001.txt
129 1340000 0.83808940845329 49.7714073441482 2.09784054428719
print           "${i} ${st} ${phi} ${pr} ${KEtot}" append ${pressfile}
print           "${i} ${st} ${phi} ${pr} ${KEtot}" append compress_rate/compress_rate_0.0001/press_phi_compress_rate_0.0001.txt
129 1340000 0.83808940845329 49.7714073441482 2.09784054428719
next            i
jump            SELF loop_compress
variable        i loop ${ncycle}
variable        i loop 150
# @before(压缩之前的我不关注)
change_box      all x scale ${scale} y scale ${scale} remap units box
change_box      all x scale 0.998 y scale ${scale} remap units box
change_box      all x scale 0.998 y scale 0.998 remap units box
Changing box ...
  orthogonal box = (3.9528833 3.9262352 -0.1) to (30.547647 30.574296 0.1)
  orthogonal box = (3.9528833 3.9528833 -0.1) to (30.547647 30.547647 0.1)
velocity        all set 0.0 0.0 0.0       # 压缩后清零速度，避免把上一轮残余动量带进来
# @after
run             ${compress_loop}        # 每轮给足够松弛时间
run             10000        
Generated 0 of 1 mixed pair_coeff terms from geometric mixing rule
Per MPI rank memory allocation (min/avg/max) = 11.24 | 11.24 | 11.24 Mbytes
   Step        Atoms          Lx             Ly           v_phi          Press          KinEng        c_ke_rot   
   1340000         512   26.594764      26.594764      0.84145185     93.252762      0              0            
   1345000         512   26.594764      26.594764      0.84145185     72.047272      0.012137328    0            
   1350000         512   26.594764      26.594764      0.84145185     62.773011      0.0073182392   0            
Loop time of 0.141264 on 8 procs for 10000 steps with 512 atoms

Performance: 305811.209 tau/day, 70789.632 timesteps/s, 36.244 Matom-step/s
95.4% CPU use with 8 MPI tasks x 1 OpenMP threads

MPI task timing breakdown:
Section |  min time  |  avg time  |  max time  |%varavg| %total
---------------------------------------------------------------
Pair    | 0.041328   | 0.045324   | 0.050804   |   1.4 | 32.08
Neigh   | 1.7e-05    | 1.8e-05    | 2e-05      |   0.0 |  0.01
Comm    | 0.040871   | 0.042566   | 0.043768   |   0.5 | 30.13
Output  | 0.000615   | 0.0008295  | 0.001078   |   0.0 |  0.59
Modify  | 0.011074   | 0.012494   | 0.013291   |   0.6 |  8.84
Other   |            | 0.04003    |            |       | 28.34

Nlocal:             64 ave          67 max          61 min
Histogram: 2 1 0 0 0 1 1 0 2 1
Nghost:         66.375 ave          74 max          61 min
Histogram: 2 0 2 0 0 1 2 0 0 1
Neighs:         224.25 ave         233 max         213 min
Histogram: 1 1 0 1 1 0 0 1 1 2

Total # of neighbors = 1794
Ave neighs/atom = 3.5039062
Neighbor list builds = 1
Dangerous builds = 0
print           "${i} ${st} ${phi} ${pr} ${KEtot}" append ${logfile}
print           "${i} ${st} ${phi} ${pr} ${KEtot}" append compress_rate/compress_rate_0.0001/log_compress_rate_0.0001.txt
130 1350000 0.841451850046074 62.7730108544385 3.74693847384687
print           "${i} ${st} ${phi} ${pr} ${KEtot}" append ${pressfile}
print           "${i} ${st} ${phi} ${pr} ${KEtot}" append compress_rate/compress_rate_0.0001/press_phi_compress_rate_0.0001.txt
130 1350000 0.841451850046074 62.7730108544385 3.74693847384687
next            i
jump            SELF loop_compress
variable        i loop ${ncycle}
variable        i loop 150
# @before(压缩之前的我不关注)
change_box      all x scale ${scale} y scale ${scale} remap units box
change_box      all x scale 0.998 y scale ${scale} remap units box
change_box      all x scale 0.998 y scale 0.998 remap units box
Changing box ...
  orthogonal box = (3.9794781 3.9528833 -0.1) to (30.521053 30.547647 0.1)
  orthogonal box = (3.9794781 3.9794781 -0.1) to (30.521053 30.521053 0.1)
velocity        all set 0.0 0.0 0.0       # 压缩后清零速度，避免把上一轮残余动量带进来
# @after
run             ${compress_loop}        # 每轮给足够松弛时间
run             10000        
Generated 0 of 1 mixed pair_coeff terms from geometric mixing rule
Per MPI rank memory allocation (min/avg/max) = 11.24 | 11.24 | 11.24 Mbytes
   Step        Atoms          Lx             Ly           v_phi          Press          KinEng        c_ke_rot   
   1350000         512   26.541575      26.541575      0.84482778     106.30999      0              0            
   1355000         512   26.541575      26.541575      0.84482778     84.104147      0.017098621    0            
   1360000         512   26.541575      26.541575      0.84482778     78.743484      0.0058698142   0            
Loop time of 0.177059 on 8 procs for 10000 steps with 512 atoms

Performance: 243985.779 tau/day, 56478.190 timesteps/s, 28.917 Matom-step/s
96.0% CPU use with 8 MPI tasks x 1 OpenMP threads

MPI task timing breakdown:
Section |  min time  |  avg time  |  max time  |%varavg| %total
---------------------------------------------------------------
Pair    | 0.049697   | 0.053897   | 0.064964   |   2.4 | 30.44
Neigh   | 1.7e-05    | 1.925e-05  | 2.1e-05    |   0.0 |  0.01
Comm    | 0.046794   | 0.04965    | 0.051739   |   0.7 | 28.04
Output  | 0.002454   | 0.0027979  | 0.00314    |   0.4 |  1.58
Modify  | 0.013484   | 0.015301   | 0.020539   |   2.2 |  8.64
Other   |            | 0.05539    |            |       | 31.29

Nlocal:             64 ave          68 max          60 min
Histogram: 2 0 1 0 0 0 2 2 0 1
Nghost:          66.25 ave          73 max          60 min
Histogram: 1 0 2 1 0 0 2 1 0 1
Neighs:        224.625 ave         239 max         211 min
Histogram: 1 1 1 0 0 1 3 0 0 1

Total # of neighbors = 1797
Ave neighs/atom = 3.5097656
Neighbor list builds = 1
Dangerous builds = 0
print           "${i} ${st} ${phi} ${pr} ${KEtot}" append ${logfile}
print           "${i} ${st} ${phi} ${pr} ${KEtot}" append compress_rate/compress_rate_0.0001/log_compress_rate_0.0001.txt
131 1360000 0.844827781862396 78.7434837266634 3.00534486499101
print           "${i} ${st} ${phi} ${pr} ${KEtot}" append ${pressfile}
print           "${i} ${st} ${phi} ${pr} ${KEtot}" append compress_rate/compress_rate_0.0001/press_phi_compress_rate_0.0001.txt
131 1360000 0.844827781862396 78.7434837266634 3.00534486499101
next            i
jump            SELF loop_compress
variable        i loop ${ncycle}
variable        i loop 150
# @before(压缩之前的我不关注)
change_box      all x scale ${scale} y scale ${scale} remap units box
change_box      all x scale 0.998 y scale ${scale} remap units box
change_box      all x scale 0.998 y scale 0.998 remap units box
Changing box ...
  orthogonal box = (4.0060196 3.9794781 -0.1) to (30.494511 30.521053 0.1)
  orthogonal box = (4.0060196 4.0060196 -0.1) to (30.494511 30.494511 0.1)
velocity        all set 0.0 0.0 0.0       # 压缩后清零速度，避免把上一轮残余动量带进来
# @after
run             ${compress_loop}        # 每轮给足够松弛时间
run             10000        
Generated 0 of 1 mixed pair_coeff terms from geometric mixing rule
Per MPI rank memory allocation (min/avg/max) = 11.24 | 11.24 | 11.24 Mbytes
   Step        Atoms          Lx             Ly           v_phi          Press          KinEng        c_ke_rot   
   1360000         512   26.488492      26.488492      0.84821726     123.37439      0              0            
   1365000         512   26.488492      26.488492      0.84821726     104.10384      0.011761561    0            
   1370000         512   26.488492      26.488492      0.84821726     98.843566      0.0058209951   0            
Loop time of 0.171652 on 8 procs for 10000 steps with 512 atoms

Performance: 251672.721 tau/day, 58257.574 timesteps/s, 29.828 Matom-step/s
94.4% CPU use with 8 MPI tasks x 1 OpenMP threads

MPI task timing breakdown:
Section |  min time  |  avg time  |  max time  |%varavg| %total
---------------------------------------------------------------
Pair    | 0.04708    | 0.049755   | 0.056177   |   1.3 | 28.99
Neigh   | 0          | 0          | 0          |   0.0 |  0.00
Comm    | 0.044687   | 0.0498     | 0.052667   |   1.0 | 29.01
Output  | 0.000877   | 0.0010699  | 0.001372   |   0.4 |  0.62
Modify  | 0.011604   | 0.012742   | 0.014      |   0.6 |  7.42
Other   |            | 0.05828    |            |       | 33.96

Nlocal:             64 ave          68 max          60 min
Histogram: 2 0 1 0 0 0 2 2 0 1
Nghost:          66.25 ave          73 max          60 min
Histogram: 1 0 2 1 0 0 2 1 0 1
Neighs:        224.875 ave         239 max         211 min
Histogram: 1 1 1 0 0 1 3 0 0 1

Total # of neighbors = 1799
Ave neighs/atom = 3.5136719
Neighbor list builds = 0
Dangerous builds = 0
print           "${i} ${st} ${phi} ${pr} ${KEtot}" append ${logfile}
print           "${i} ${st} ${phi} ${pr} ${KEtot}" append compress_rate/compress_rate_0.0001/log_compress_rate_0.0001.txt
132 1370000 0.848217258025466 98.8435658784509 2.9803494715354
print           "${i} ${st} ${phi} ${pr} ${KEtot}" append ${pressfile}
print           "${i} ${st} ${phi} ${pr} ${KEtot}" append compress_rate/compress_rate_0.0001/press_phi_compress_rate_0.0001.txt
132 1370000 0.848217258025466 98.8435658784509 2.9803494715354
next            i
jump            SELF loop_compress
variable        i loop ${ncycle}
variable        i loop 150
# @before(压缩之前的我不关注)
change_box      all x scale ${scale} y scale ${scale} remap units box
change_box      all x scale 0.998 y scale ${scale} remap units box
change_box      all x scale 0.998 y scale 0.998 remap units box
Changing box ...
  orthogonal box = (4.0325081 4.0060196 -0.1) to (30.468023 30.494511 0.1)
  orthogonal box = (4.0325081 4.0325081 -0.1) to (30.468023 30.468023 0.1)
velocity        all set 0.0 0.0 0.0       # 压缩后清零速度，避免把上一轮残余动量带进来
# @after
run             ${compress_loop}        # 每轮给足够松弛时间
run             10000        
Generated 0 of 1 mixed pair_coeff terms from geometric mixing rule
Per MPI rank memory allocation (min/avg/max) = 11.24 | 11.24 | 11.24 Mbytes
   Step        Atoms          Lx             Ly           v_phi          Press          KinEng        c_ke_rot   
   1370000         512   26.435515      26.435515      0.85162033     144.51451      0              0            
   1375000         512   26.435515      26.435515      0.85162033     127.85919      0.006737023    0            
   1380000         512   26.435515      26.435515      0.85162033     123.6361       0.011550912    0            
Loop time of 0.136492 on 8 procs for 10000 steps with 512 atoms

Performance: 316501.196 tau/day, 73264.166 timesteps/s, 37.511 Matom-step/s
91.6% CPU use with 8 MPI tasks x 1 OpenMP threads

MPI task timing breakdown:
Section |  min time  |  avg time  |  max time  |%varavg| %total
---------------------------------------------------------------
Pair    | 0.041304   | 0.045535   | 0.050602   |   1.4 | 33.36
Neigh   | 0          | 0          | 0          |   0.0 |  0.00
Comm    | 0.037896   | 0.040196   | 0.042125   |   0.8 | 29.45
Output  | 0.000638   | 0.00078688 | 0.000964   |   0.0 |  0.58
Modify  | 0.01026    | 0.011969   | 0.012987   |   0.7 |  8.77
Other   |            | 0.03801    |            |       | 27.84

Nlocal:             64 ave          68 max          60 min
Histogram: 1 2 0 0 0 0 2 2 0 1
Nghost:          65.75 ave          72 max          61 min
Histogram: 1 1 1 1 1 1 1 0 0 1
Neighs:            225 ave         238 max         215 min
Histogram: 3 0 0 0 1 1 1 0 1 1

Total # of neighbors = 1800
Ave neighs/atom = 3.515625
Neighbor list builds = 0
Dangerous builds = 0
print           "${i} ${st} ${phi} ${pr} ${KEtot}" append ${logfile}
print           "${i} ${st} ${phi} ${pr} ${KEtot}" append compress_rate/compress_rate_0.0001/log_compress_rate_0.0001.txt
133 1380000 0.851620332875637 123.636096457732 5.914066773894
print           "${i} ${st} ${phi} ${pr} ${KEtot}" append ${pressfile}
print           "${i} ${st} ${phi} ${pr} ${KEtot}" append compress_rate/compress_rate_0.0001/press_phi_compress_rate_0.0001.txt
133 1380000 0.851620332875637 123.636096457732 5.914066773894
next            i
jump            SELF loop_compress
variable        i loop ${ncycle}
variable        i loop 150
# @before(压缩之前的我不关注)
change_box      all x scale ${scale} y scale ${scale} remap units box
change_box      all x scale 0.998 y scale ${scale} remap units box
change_box      all x scale 0.998 y scale 0.998 remap units box
Changing box ...
  orthogonal box = (4.0589436 4.0325081 -0.1) to (30.441587 30.468023 0.1)
  orthogonal box = (4.0589436 4.0589436 -0.1) to (30.441587 30.441587 0.1)
velocity        all set 0.0 0.0 0.0       # 压缩后清零速度，避免把上一轮残余动量带进来
# @after
run             ${compress_loop}        # 每轮给足够松弛时间
run             10000        
Generated 0 of 1 mixed pair_coeff terms from geometric mixing rule
Per MPI rank memory allocation (min/avg/max) = 11.24 | 11.24 | 11.24 Mbytes
   Step        Atoms          Lx             Ly           v_phi          Press          KinEng        c_ke_rot   
   1380000         512   26.382644      26.382644      0.85503706     170.00836      0              0            
   1385000         512   26.382644      26.382644      0.85503706     156.59936      0.0031515987   0            
   1390000         512   26.382644      26.382644      0.85503706     155.39465      0.0020381131   0            
Loop time of 0.134175 on 8 procs for 10000 steps with 512 atoms

Performance: 321967.880 tau/day, 74529.602 timesteps/s, 38.159 Matom-step/s
101.9% CPU use with 8 MPI tasks x 1 OpenMP threads

MPI task timing breakdown:
Section |  min time  |  avg time  |  max time  |%varavg| %total
---------------------------------------------------------------
Pair    | 0.044159   | 0.046177   | 0.047992   |   0.5 | 34.42
Neigh   | 0          | 0          | 0          |   0.0 |  0.00
Comm    | 0.038351   | 0.039658   | 0.040312   |   0.3 | 29.56
Output  | 0.000677   | 0.00096963 | 0.001284   |   0.0 |  0.72
Modify  | 0.011074   | 0.011931   | 0.01273    |   0.5 |  8.89
Other   |            | 0.03544    |            |       | 26.41

Nlocal:             64 ave          68 max          60 min
Histogram: 1 1 0 1 0 1 2 1 0 1
Nghost:             65 ave          72 max          60 min
Histogram: 2 0 1 0 1 3 0 0 0 1
Neighs:          225.5 ave         238 max         212 min
Histogram: 1 0 1 0 2 0 2 1 0 1

Total # of neighbors = 1804
Ave neighs/atom = 3.5234375
Neighbor list builds = 0
Dangerous builds = 0
print           "${i} ${st} ${phi} ${pr} ${KEtot}" append ${logfile}
print           "${i} ${st} ${phi} ${pr} ${KEtot}" append compress_rate/compress_rate_0.0001/log_compress_rate_0.0001.txt
134 1390000 0.855037060971279 155.394653670129 1.04351391983861
print           "${i} ${st} ${phi} ${pr} ${KEtot}" append ${pressfile}
print           "${i} ${st} ${phi} ${pr} ${KEtot}" append compress_rate/compress_rate_0.0001/press_phi_compress_rate_0.0001.txt
134 1390000 0.855037060971279 155.394653670129 1.04351391983861
next            i
jump            SELF loop_compress
variable        i loop ${ncycle}
variable        i loop 150
# @before(压缩之前的我不关注)
change_box      all x scale ${scale} y scale ${scale} remap units box
change_box      all x scale 0.998 y scale ${scale} remap units box
change_box      all x scale 0.998 y scale 0.998 remap units box
Changing box ...
  orthogonal box = (4.0853263 4.0589436 -0.1) to (30.415205 30.441587 0.1)
  orthogonal box = (4.0853263 4.0853263 -0.1) to (30.415205 30.415205 0.1)
velocity        all set 0.0 0.0 0.0       # 压缩后清零速度，避免把上一轮残余动量带进来
# @after
run             ${compress_loop}        # 每轮给足够松弛时间
run             10000        
Generated 0 of 1 mixed pair_coeff terms from geometric mixing rule
Per MPI rank memory allocation (min/avg/max) = 11.24 | 11.24 | 11.24 Mbytes
   Step        Atoms          Lx             Ly           v_phi          Press          KinEng        c_ke_rot   
   1390000         512   26.329878      26.329878      0.8584675      202.96333      0              0            
   1395000         512   26.329878      26.329878      0.8584675      190.64286      0.0033300575   0            
   1400000         512   26.329878      26.329878      0.8584675      187.70086      0.0051326423   0            
Loop time of 0.135158 on 8 procs for 10000 steps with 512 atoms

Performance: 319626.806 tau/day, 73987.687 timesteps/s, 37.882 Matom-step/s
95.4% CPU use with 8 MPI tasks x 1 OpenMP threads

MPI task timing breakdown:
Section |  min time  |  avg time  |  max time  |%varavg| %total
---------------------------------------------------------------
Pair    | 0.043913   | 0.046988   | 0.049321   |   0.7 | 34.77
Neigh   | 0          | 0          | 0          |   0.0 |  0.00
Comm    | 0.038155   | 0.039785   | 0.041162   |   0.5 | 29.44
Output  | 0.000705   | 0.000866   | 0.001126   |   0.0 |  0.64
Modify  | 0.010951   | 0.012037   | 0.012776   |   0.5 |  8.91
Other   |            | 0.03548    |            |       | 26.25

Nlocal:             64 ave          67 max          60 min
Histogram: 1 0 1 0 2 1 0 0 1 2
Nghost:          65.25 ave          72 max          60 min
Histogram: 3 0 0 0 0 4 0 0 0 1
Neighs:         226.75 ave         237 max         214 min
Histogram: 1 0 0 3 0 1 0 0 1 2

Total # of neighbors = 1814
Ave neighs/atom = 3.5429688
Neighbor list builds = 0
Dangerous builds = 0
print           "${i} ${st} ${phi} ${pr} ${KEtot}" append ${logfile}
print           "${i} ${st} ${phi} ${pr} ${KEtot}" append compress_rate/compress_rate_0.0001/log_compress_rate_0.0001.txt
135 1400000 0.858467497089649 187.700858720078 2.62791287449276
print           "${i} ${st} ${phi} ${pr} ${KEtot}" append ${pressfile}
print           "${i} ${st} ${phi} ${pr} ${KEtot}" append compress_rate/compress_rate_0.0001/press_phi_compress_rate_0.0001.txt
135 1400000 0.858467497089649 187.700858720078 2.62791287449276
next            i
jump            SELF loop_compress
variable        i loop ${ncycle}
variable        i loop 150
# @before(压缩之前的我不关注)
change_box      all x scale ${scale} y scale ${scale} remap units box
change_box      all x scale 0.998 y scale ${scale} remap units box
change_box      all x scale 0.998 y scale 0.998 remap units box
Changing box ...
  orthogonal box = (4.1116562 4.0853263 -0.1) to (30.388875 30.415205 0.1)
  orthogonal box = (4.1116562 4.1116562 -0.1) to (30.388875 30.388875 0.1)
velocity        all set 0.0 0.0 0.0       # 压缩后清零速度，避免把上一轮残余动量带进来
# @after
run             ${compress_loop}        # 每轮给足够松弛时间
run             10000        
Generated 0 of 1 mixed pair_coeff terms from geometric mixing rule
Per MPI rank memory allocation (min/avg/max) = 11.24 | 11.24 | 11.24 Mbytes
   Step        Atoms          Lx             Ly           v_phi          Press          KinEng        c_ke_rot   
   1400000         512   26.277218      26.277218      0.8619117      236.17863      0              0            
   1405000         512   26.277218      26.277218      0.8619117      223.14088      0.0027400832   0            
   1410000         512   26.277218      26.277218      0.8619117      223.14318      0.0015827561   0            
Loop time of 0.134788 on 8 procs for 10000 steps with 512 atoms

Performance: 320503.012 tau/day, 74190.512 timesteps/s, 37.986 Matom-step/s
102.9% CPU use with 8 MPI tasks x 1 OpenMP threads

MPI task timing breakdown:
Section |  min time  |  avg time  |  max time  |%varavg| %total
---------------------------------------------------------------
Pair    | 0.044787   | 0.047428   | 0.049703   |   0.8 | 35.19
Neigh   | 0          | 0          | 0          |   0.0 |  0.00
Comm    | 0.038556   | 0.039617   | 0.040589   |   0.3 | 29.39
Output  | 0.000812   | 0.0010319  | 0.001236   |   0.4 |  0.77
Modify  | 0.010907   | 0.012122   | 0.012975   |   0.6 |  8.99
Other   |            | 0.03459    |            |       | 25.66

Nlocal:             64 ave          67 max          61 min
Histogram: 1 1 0 2 0 1 1 0 0 2
Nghost:          65.75 ave          73 max          61 min
Histogram: 2 1 0 1 1 2 0 0 0 1
Neighs:        226.375 ave         236 max         217 min
Histogram: 1 1 1 0 2 0 1 0 0 2

Total # of neighbors = 1811
Ave neighs/atom = 3.5371094
Neighbor list builds = 0
Dangerous builds = 0
print           "${i} ${st} ${phi} ${pr} ${KEtot}" append ${logfile}
print           "${i} ${st} ${phi} ${pr} ${KEtot}" append compress_rate/compress_rate_0.0001/log_compress_rate_0.0001.txt
136 1410000 0.861911696227775 223.143177151019 0.810371115089353
print           "${i} ${st} ${phi} ${pr} ${KEtot}" append ${pressfile}
print           "${i} ${st} ${phi} ${pr} ${KEtot}" append compress_rate/compress_rate_0.0001/press_phi_compress_rate_0.0001.txt
136 1410000 0.861911696227775 223.143177151019 0.810371115089353
next            i
jump            SELF loop_compress
variable        i loop ${ncycle}
variable        i loop 150
# @before(压缩之前的我不关注)
change_box      all x scale ${scale} y scale ${scale} remap units box
change_box      all x scale 0.998 y scale ${scale} remap units box
change_box      all x scale 0.998 y scale 0.998 remap units box
Changing box ...
  orthogonal box = (4.1379334 4.1116562 -0.1) to (30.362597 30.388875 0.1)
  orthogonal box = (4.1379334 4.1379334 -0.1) to (30.362597 30.362597 0.1)
velocity        all set 0.0 0.0 0.0       # 压缩后清零速度，避免把上一轮残余动量带进来
# @after
run             ${compress_loop}        # 每轮给足够松弛时间
run             10000        
Generated 0 of 1 mixed pair_coeff terms from geometric mixing rule
Per MPI rank memory allocation (min/avg/max) = 11.24 | 11.24 | 11.24 Mbytes
   Step        Atoms          Lx             Ly           v_phi          Press          KinEng        c_ke_rot   
   1410000         512   26.224664      26.224664      0.86536971     272.57254      0              0            
   1415000         512   26.224664      26.224664      0.86536971     261.90076      0.0093979974   0            
   1420000         512   26.224664      26.224664      0.86536971     260.05978      0.0025500757   0            
Loop time of 0.148758 on 8 procs for 10000 steps with 512 atoms

Performance: 290404.306 tau/day, 67223.219 timesteps/s, 34.418 Matom-step/s
90.6% CPU use with 8 MPI tasks x 1 OpenMP threads

MPI task timing breakdown:
Section |  min time  |  avg time  |  max time  |%varavg| %total
---------------------------------------------------------------
Pair    | 0.046797   | 0.050162   | 0.053862   |   1.2 | 33.72
Neigh   | 0          | 0          | 0          |   0.0 |  0.00
Comm    | 0.040903   | 0.0428     | 0.045574   |   0.7 | 28.77
Output  | 0.000674   | 0.00084788 | 0.001026   |   0.0 |  0.57
Modify  | 0.011224   | 0.012457   | 0.013582   |   0.8 |  8.37
Other   |            | 0.04249    |            |       | 28.56

Nlocal:             64 ave          68 max          61 min
Histogram: 1 1 1 0 3 0 0 1 0 1
Nghost:             66 ave          71 max          62 min
Histogram: 1 1 2 0 0 1 1 1 0 1
Neighs:          226.5 ave         241 max         218 min
Histogram: 1 1 2 2 0 0 1 0 0 1

Total # of neighbors = 1812
Ave neighs/atom = 3.5390625
Neighbor list builds = 0
Dangerous builds = 0
print           "${i} ${st} ${phi} ${pr} ${KEtot}" append ${logfile}
print           "${i} ${st} ${phi} ${pr} ${KEtot}" append compress_rate/compress_rate_0.0001/log_compress_rate_0.0001.txt
137 1420000 0.865369713603334 260.059776216603 1.30563875279692
print           "${i} ${st} ${phi} ${pr} ${KEtot}" append ${pressfile}
print           "${i} ${st} ${phi} ${pr} ${KEtot}" append compress_rate/compress_rate_0.0001/press_phi_compress_rate_0.0001.txt
137 1420000 0.865369713603334 260.059776216603 1.30563875279692
next            i
jump            SELF loop_compress
variable        i loop ${ncycle}
variable        i loop 150
# @before(压缩之前的我不关注)
change_box      all x scale ${scale} y scale ${scale} remap units box
change_box      all x scale 0.998 y scale ${scale} remap units box
change_box      all x scale 0.998 y scale 0.998 remap units box
Changing box ...
  orthogonal box = (4.164158 4.1379334 -0.1) to (30.336373 30.362597 0.1)
  orthogonal box = (4.164158 4.164158 -0.1) to (30.336373 30.336373 0.1)
velocity        all set 0.0 0.0 0.0       # 压缩后清零速度，避免把上一轮残余动量带进来
# @after
run             ${compress_loop}        # 每轮给足够松弛时间
run             10000        
Generated 0 of 1 mixed pair_coeff terms from geometric mixing rule
Per MPI rank memory allocation (min/avg/max) = 11.24 | 11.24 | 11.24 Mbytes
   Step        Atoms          Lx             Ly           v_phi          Press          KinEng        c_ke_rot   
   1420000         512   26.172215      26.172215      0.8688416      310.19995      0              0            
   1425000         512   26.172215      26.172215      0.8688416      298.61341      0.0079027069   0            
   1430000         512   26.172215      26.172215      0.8688416      295.32839      0.010079709    0            
Loop time of 0.142363 on 8 procs for 10000 steps with 512 atoms

Performance: 303450.165 tau/day, 70243.094 timesteps/s, 35.964 Matom-step/s
96.0% CPU use with 8 MPI tasks x 1 OpenMP threads

MPI task timing breakdown:
Section |  min time  |  avg time  |  max time  |%varavg| %total
---------------------------------------------------------------
Pair    | 0.047927   | 0.049817   | 0.052205   |   0.7 | 34.99
Neigh   | 0          | 0          | 0          |   0.0 |  0.00
Comm    | 0.039285   | 0.041167   | 0.043857   |   0.8 | 28.92
Output  | 0.000859   | 0.0011593  | 0.001383   |   0.5 |  0.81
Modify  | 0.011213   | 0.012568   | 0.013837   |   0.8 |  8.83
Other   |            | 0.03765    |            |       | 26.45

Nlocal:             64 ave          67 max          60 min
Histogram: 1 1 0 0 2 1 0 0 0 3
Nghost:         66.375 ave          73 max          60 min
Histogram: 1 0 0 3 0 1 2 0 0 1
Neighs:          227.5 ave         240 max         216 min
Histogram: 1 1 2 0 1 0 0 0 2 1

Total # of neighbors = 1820
Ave neighs/atom = 3.5546875
Neighbor list builds = 0
Dangerous builds = 0
print           "${i} ${st} ${phi} ${pr} ${KEtot}" append ${logfile}
print           "${i} ${st} ${phi} ${pr} ${KEtot}" append compress_rate/compress_rate_0.0001/log_compress_rate_0.0001.txt
138 1430000 0.868841604655538 295.328390753106 5.16081100987875
print           "${i} ${st} ${phi} ${pr} ${KEtot}" append ${pressfile}
print           "${i} ${st} ${phi} ${pr} ${KEtot}" append compress_rate/compress_rate_0.0001/press_phi_compress_rate_0.0001.txt
138 1430000 0.868841604655538 295.328390753106 5.16081100987875
next            i
jump            SELF loop_compress
variable        i loop ${ncycle}
variable        i loop 150
# @before(压缩之前的我不关注)
change_box      all x scale ${scale} y scale ${scale} remap units box
change_box      all x scale 0.998 y scale ${scale} remap units box
change_box      all x scale 0.998 y scale 0.998 remap units box
Changing box ...
  orthogonal box = (4.1903303 4.164158 -0.1) to (30.310201 30.336373 0.1)
  orthogonal box = (4.1903303 4.1903303 -0.1) to (30.310201 30.310201 0.1)
velocity        all set 0.0 0.0 0.0       # 压缩后清零速度，避免把上一轮残余动量带进来
# @after
run             ${compress_loop}        # 每轮给足够松弛时间
run             10000        
Generated 0 of 1 mixed pair_coeff terms from geometric mixing rule
Per MPI rank memory allocation (min/avg/max) = 11.24 | 11.24 | 11.24 Mbytes
   Step        Atoms          Lx             Ly           v_phi          Press          KinEng        c_ke_rot   
   1430000         512   26.11987       26.11987       0.87232743     346.27894      0              0            
   1435000         512   26.11987       26.11987       0.87232743     333.03638      0.013126729    0            
   1440000         512   26.11987       26.11987       0.87232743     329.54798      0.0084214249   0            
Loop time of 0.18483 on 8 procs for 10000 steps with 512 atoms

Performance: 233728.133 tau/day, 54103.734 timesteps/s, 27.701 Matom-step/s
90.9% CPU use with 8 MPI tasks x 1 OpenMP threads

MPI task timing breakdown:
Section |  min time  |  avg time  |  max time  |%varavg| %total
---------------------------------------------------------------
Pair    | 0.050738   | 0.061693   | 0.07844    |   4.0 | 33.38
Neigh   | 0          | 0          | 0          |   0.0 |  0.00
Comm    | 0.045634   | 0.04747    | 0.048806   |   0.5 | 25.68
Output  | 0.000945   | 0.0011381  | 0.001347   |   0.3 |  0.62
Modify  | 0.012257   | 0.016415   | 0.023509   |   3.3 |  8.88
Other   |            | 0.05811    |            |       | 31.44

Nlocal:             64 ave          67 max          60 min
Histogram: 1 0 1 0 2 0 0 2 0 2
Nghost:             66 ave          72 max          60 min
Histogram: 1 0 2 0 1 0 2 1 0 1
Neighs:        227.875 ave         238 max         218 min
Histogram: 2 0 1 1 0 0 1 1 0 2

Total # of neighbors = 1823
Ave neighs/atom = 3.5605469
Neighbor list builds = 0
Dangerous builds = 0
print           "${i} ${st} ${phi} ${pr} ${KEtot}" append ${logfile}
print           "${i} ${st} ${phi} ${pr} ${KEtot}" append compress_rate/compress_rate_0.0001/log_compress_rate_0.0001.txt
139 1440000 0.872327425046021 329.547983604964 4.31176954065715
print           "${i} ${st} ${phi} ${pr} ${KEtot}" append ${pressfile}
print           "${i} ${st} ${phi} ${pr} ${KEtot}" append compress_rate/compress_rate_0.0001/press_phi_compress_rate_0.0001.txt
139 1440000 0.872327425046021 329.547983604964 4.31176954065715
next            i
jump            SELF loop_compress
variable        i loop ${ncycle}
variable        i loop 150
# @before(压缩之前的我不关注)
change_box      all x scale ${scale} y scale ${scale} remap units box
change_box      all x scale 0.998 y scale ${scale} remap units box
change_box      all x scale 0.998 y scale 0.998 remap units box
Changing box ...
  orthogonal box = (4.2164501 4.1903303 -0.1) to (30.284081 30.310201 0.1)
  orthogonal box = (4.2164501 4.2164501 -0.1) to (30.284081 30.284081 0.1)
velocity        all set 0.0 0.0 0.0       # 压缩后清零速度，避免把上一轮残余动量带进来
# @after
run             ${compress_loop}        # 每轮给足够松弛时间
run             10000        
Generated 0 of 1 mixed pair_coeff terms from geometric mixing rule
Per MPI rank memory allocation (min/avg/max) = 11.24 | 11.24 | 11.24 Mbytes
   Step        Atoms          Lx             Ly           v_phi          Press          KinEng        c_ke_rot   
   1440000         512   26.067631      26.067631      0.87582723     380.96849      0              0            
   1445000         512   26.067631      26.067631      0.87582723     365.84708      0.017411487    0            
   1450000         512   26.067631      26.067631      0.87582723     361.86203      0.014728148    0            
Loop time of 0.176897 on 8 procs for 10000 steps with 512 atoms

Performance: 244209.562 tau/day, 56529.991 timesteps/s, 28.943 Matom-step/s
97.2% CPU use with 8 MPI tasks x 1 OpenMP threads

MPI task timing breakdown:
Section |  min time  |  avg time  |  max time  |%varavg| %total
---------------------------------------------------------------
Pair    | 0.047957   | 0.058176   | 0.078866   |   5.0 | 32.89
Neigh   | 1.8e-05    | 1.95e-05   | 2.2e-05    |   0.0 |  0.01
Comm    | 0.041685   | 0.044483   | 0.047583   |   1.0 | 25.15
Output  | 0.000939   | 0.0011855  | 0.001514   |   0.6 |  0.67
Modify  | 0.01128    | 0.015226   | 0.023185   |   3.8 |  8.61
Other   |            | 0.05781    |            |       | 32.68

Nlocal:             64 ave          66 max          62 min
Histogram: 1 0 3 0 0 1 0 1 0 2
Nghost:         65.875 ave          70 max          62 min
Histogram: 1 2 1 0 0 0 0 2 1 1
Neighs:          226.5 ave         233 max         221 min
Histogram: 3 0 0 1 0 1 0 0 2 1

Total # of neighbors = 1812
Ave neighs/atom = 3.5390625
Neighbor list builds = 1
Dangerous builds = 0
print           "${i} ${st} ${phi} ${pr} ${KEtot}" append ${logfile}
print           "${i} ${st} ${phi} ${pr} ${KEtot}" append compress_rate/compress_rate_0.0001/log_compress_rate_0.0001.txt
140 1450000 0.875827230659738 361.862028932154 7.54081192936681
print           "${i} ${st} ${phi} ${pr} ${KEtot}" append ${pressfile}
print           "${i} ${st} ${phi} ${pr} ${KEtot}" append compress_rate/compress_rate_0.0001/press_phi_compress_rate_0.0001.txt
140 1450000 0.875827230659738 361.862028932154 7.54081192936681
next            i
jump            SELF loop_compress
variable        i loop ${ncycle}
variable        i loop 150
# @before(压缩之前的我不关注)
change_box      all x scale ${scale} y scale ${scale} remap units box
change_box      all x scale 0.998 y scale ${scale} remap units box
change_box      all x scale 0.998 y scale 0.998 remap units box
Changing box ...
  orthogonal box = (4.2425178 4.2164501 -0.1) to (30.258013 30.284081 0.1)
  orthogonal box = (4.2425178 4.2425178 -0.1) to (30.258013 30.258013 0.1)
velocity        all set 0.0 0.0 0.0       # 压缩后清零速度，避免把上一轮残余动量带进来
# @after
run             ${compress_loop}        # 每轮给足够松弛时间
run             10000        
Generated 0 of 1 mixed pair_coeff terms from geometric mixing rule
Per MPI rank memory allocation (min/avg/max) = 11.24 | 11.24 | 11.24 Mbytes
   Step        Atoms          Lx             Ly           v_phi          Press          KinEng        c_ke_rot   
   1450000         512   26.015495      26.015495      0.87934108     414.08267      0              0            
   1455000         512   26.015495      26.015495      0.87934108     400.69332      0.01062793     0            
   1460000         512   26.015495      26.015495      0.87934108     396.91928      0.0066044887   0            
Loop time of 0.200147 on 8 procs for 10000 steps with 512 atoms

Performance: 215841.626 tau/day, 49963.339 timesteps/s, 25.581 Matom-step/s
99.5% CPU use with 8 MPI tasks x 1 OpenMP threads

MPI task timing breakdown:
Section |  min time  |  avg time  |  max time  |%varavg| %total
---------------------------------------------------------------
Pair    | 0.061246   | 0.068822   | 0.07759    |   1.9 | 34.39
Neigh   | 0          | 0          | 0          |   0.0 |  0.00
Comm    | 0.051634   | 0.054189   | 0.056694   |   0.7 | 27.07
Output  | 0.000944   | 0.0011737  | 0.001415   |   0.5 |  0.59
Modify  | 0.01516    | 0.017041   | 0.020493   |   1.3 |  8.51
Other   |            | 0.05892    |            |       | 29.44

Nlocal:             64 ave          66 max          62 min
Histogram: 1 0 3 0 0 1 0 1 0 2
Nghost:          66.25 ave          70 max          62 min
Histogram: 1 1 2 0 0 0 0 1 1 2
Neighs:          226.5 ave         234 max         221 min
Histogram: 3 0 0 1 1 0 1 1 0 1

Total # of neighbors = 1812
Ave neighs/atom = 3.5390625
Neighbor list builds = 0
Dangerous builds = 0
print           "${i} ${st} ${phi} ${pr} ${KEtot}" append ${logfile}
print           "${i} ${st} ${phi} ${pr} ${KEtot}" append compress_rate/compress_rate_0.0001/log_compress_rate_0.0001.txt
141 1460000 0.87934107760585 396.919277985211 3.38149819391339
print           "${i} ${st} ${phi} ${pr} ${KEtot}" append ${pressfile}
print           "${i} ${st} ${phi} ${pr} ${KEtot}" append compress_rate/compress_rate_0.0001/press_phi_compress_rate_0.0001.txt
141 1460000 0.87934107760585 396.919277985211 3.38149819391339
next            i
jump            SELF loop_compress
variable        i loop ${ncycle}
variable        i loop 150
# @before(压缩之前的我不关注)
change_box      all x scale ${scale} y scale ${scale} remap units box
change_box      all x scale 0.998 y scale ${scale} remap units box
change_box      all x scale 0.998 y scale 0.998 remap units box
Changing box ...
  orthogonal box = (4.2685333 4.2425178 -0.1) to (30.231998 30.258013 0.1)
  orthogonal box = (4.2685333 4.2685333 -0.1) to (30.231998 30.231998 0.1)
velocity        all set 0.0 0.0 0.0       # 压缩后清零速度，避免把上一轮残余动量带进来
# @after
run             ${compress_loop}        # 每轮给足够松弛时间
run             10000        
Generated 0 of 1 mixed pair_coeff terms from geometric mixing rule
Per MPI rank memory allocation (min/avg/max) = 11.24 | 11.24 | 11.24 Mbytes
   Step        Atoms          Lx             Ly           v_phi          Press          KinEng        c_ke_rot   
   1460000         512   25.963464      25.963464      0.88286902     449.802        0              0            
   1465000         512   25.963464      25.963464      0.88286902     438.417        0.0030325772   0            
   1470000         512   25.963464      25.963464      0.88286902     437.00594      0.0055571027   0            
Loop time of 0.179799 on 8 procs for 10000 steps with 512 atoms

Performance: 240268.467 tau/day, 55617.701 timesteps/s, 28.476 Matom-step/s
97.8% CPU use with 8 MPI tasks x 1 OpenMP threads

MPI task timing breakdown:
Section |  min time  |  avg time  |  max time  |%varavg| %total
---------------------------------------------------------------
Pair    | 0.052721   | 0.058453   | 0.064465   |   1.6 | 32.51
Neigh   | 0          | 0          | 0          |   0.0 |  0.00
Comm    | 0.044292   | 0.047808   | 0.050658   |   0.9 | 26.59
Output  | 0.000926   | 0.0011231  | 0.001342   |   0.4 |  0.62
Modify  | 0.012389   | 0.014195   | 0.016656   |   1.0 |  7.89
Other   |            | 0.05822    |            |       | 32.38

Nlocal:             64 ave          66 max          61 min
Histogram: 1 0 0 0 2 0 2 0 1 2
Nghost:          67.25 ave          71 max          62 min
Histogram: 1 0 1 2 0 0 0 0 2 2
Neighs:        226.625 ave         235 max         215 min
Histogram: 1 0 0 1 0 1 2 1 1 1

Total # of neighbors = 1813
Ave neighs/atom = 3.5410156
Neighbor list builds = 0
Dangerous builds = 0
print           "${i} ${st} ${phi} ${pr} ${KEtot}" append ${logfile}
print           "${i} ${st} ${phi} ${pr} ${KEtot}" append compress_rate/compress_rate_0.0001/log_compress_rate_0.0001.txt
142 1470000 0.882869022218636 437.005936536501 2.84523656076067
print           "${i} ${st} ${phi} ${pr} ${KEtot}" append ${pressfile}
print           "${i} ${st} ${phi} ${pr} ${KEtot}" append compress_rate/compress_rate_0.0001/press_phi_compress_rate_0.0001.txt
142 1470000 0.882869022218636 437.005936536501 2.84523656076067
next            i
jump            SELF loop_compress
variable        i loop ${ncycle}
variable        i loop 150
# @before(压缩之前的我不关注)
change_box      all x scale ${scale} y scale ${scale} remap units box
change_box      all x scale 0.998 y scale ${scale} remap units box
change_box      all x scale 0.998 y scale 0.998 remap units box
Changing box ...
  orthogonal box = (4.2944967 4.2685333 -0.1) to (30.206034 30.231998 0.1)
  orthogonal box = (4.2944967 4.2944967 -0.1) to (30.206034 30.206034 0.1)
velocity        all set 0.0 0.0 0.0       # 压缩后清零速度，避免把上一轮残余动量带进来
# @after
run             ${compress_loop}        # 每轮给足够松弛时间
run             10000        
Generated 0 of 1 mixed pair_coeff terms from geometric mixing rule
Per MPI rank memory allocation (min/avg/max) = 11.24 | 11.24 | 11.24 Mbytes
   Step        Atoms          Lx             Ly           v_phi          Press          KinEng        c_ke_rot   
   1470000         512   25.911537      25.911537      0.88641112     490.61854      0              0            
   1475000         512   25.911537      25.911537      0.88641112     479.62847      0.0022879352   0            
   1480000         512   25.911537      25.911537      0.88641112     477.10362      0.0031868733   0            
Loop time of 0.178413 on 8 procs for 10000 steps with 512 atoms

Performance: 242135.331 tau/day, 56049.845 timesteps/s, 28.698 Matom-step/s
92.0% CPU use with 8 MPI tasks x 1 OpenMP threads

MPI task timing breakdown:
Section |  min time  |  avg time  |  max time  |%varavg| %total
---------------------------------------------------------------
Pair    | 0.050295   | 0.056635   | 0.064416   |   1.8 | 31.74
Neigh   | 0          | 0          | 0          |   0.0 |  0.00
Comm    | 0.046957   | 0.049244   | 0.051768   |   0.6 | 27.60
Output  | 0.00095    | 0.0012829  | 0.001588   |   0.6 |  0.72
Modify  | 0.011527   | 0.01322    | 0.014196   |   0.6 |  7.41
Other   |            | 0.05803    |            |       | 32.53

Nlocal:             64 ave          66 max          61 min
Histogram: 1 0 0 0 1 0 4 0 0 2
Nghost:           67.5 ave          72 max          62 min
Histogram: 1 0 0 3 0 0 0 0 2 2
Neighs:        227.625 ave         236 max         217 min
Histogram: 1 0 0 0 2 2 1 0 1 1

Total # of neighbors = 1821
Ave neighs/atom = 3.5566406
Neighbor list builds = 0
Dangerous builds = 0
print           "${i} ${st} ${phi} ${pr} ${KEtot}" append ${logfile}
print           "${i} ${st} ${phi} ${pr} ${KEtot}" append compress_rate/compress_rate_0.0001/log_compress_rate_0.0001.txt
143 1480000 0.886411121058385 477.103616039814 1.63167911030179
print           "${i} ${st} ${phi} ${pr} ${KEtot}" append ${pressfile}
print           "${i} ${st} ${phi} ${pr} ${KEtot}" append compress_rate/compress_rate_0.0001/press_phi_compress_rate_0.0001.txt
143 1480000 0.886411121058385 477.103616039814 1.63167911030179
next            i
jump            SELF loop_compress
variable        i loop ${ncycle}
variable        i loop 150
# @before(压缩之前的我不关注)
change_box      all x scale ${scale} y scale ${scale} remap units box
change_box      all x scale 0.998 y scale ${scale} remap units box
change_box      all x scale 0.998 y scale 0.998 remap units box
Changing box ...
  orthogonal box = (4.3204083 4.2944967 -0.1) to (30.180123 30.206034 0.1)
  orthogonal box = (4.3204083 4.3204083 -0.1) to (30.180123 30.180123 0.1)
velocity        all set 0.0 0.0 0.0       # 压缩后清零速度，避免把上一轮残余动量带进来
# @after
run             ${compress_loop}        # 每轮给足够松弛时间
run             10000        
Generated 0 of 1 mixed pair_coeff terms from geometric mixing rule
Per MPI rank memory allocation (min/avg/max) = 11.24 | 11.24 | 11.24 Mbytes
   Step        Atoms          Lx             Ly           v_phi          Press          KinEng        c_ke_rot   
   1480000         512   25.859714      25.859714      0.88996743     530.90153      0              0            
   1485000         512   25.859714      25.859714      0.88996743     516.27898      0.0061751784   0            
   1490000         512   25.859714      25.859714      0.88996743     515.7998       0.00096810187  0            
Loop time of 0.132081 on 8 procs for 10000 steps with 512 atoms

Performance: 327072.643 tau/day, 75711.260 timesteps/s, 38.764 Matom-step/s
105.0% CPU use with 8 MPI tasks x 1 OpenMP threads

MPI task timing breakdown:
Section |  min time  |  avg time  |  max time  |%varavg| %total
---------------------------------------------------------------
Pair    | 0.045069   | 0.049893   | 0.053118   |   1.0 | 37.77
Neigh   | 0          | 0          | 0          |   0.0 |  0.00
Comm    | 0.037155   | 0.038362   | 0.040194   |   0.5 | 29.04
Output  | 0.000725   | 0.0009115  | 0.001104   |   0.0 |  0.69
Modify  | 0.01056    | 0.012316   | 0.012853   |   0.6 |  9.32
Other   |            | 0.0306     |            |       | 23.17

Nlocal:             64 ave          66 max          60 min
Histogram: 1 0 0 0 0 0 5 0 0 2
Nghost:         67.625 ave          72 max          62 min
Histogram: 1 0 1 1 1 0 0 0 2 2
Neighs:        228.125 ave         235 max         214 min
Histogram: 1 0 0 0 0 1 1 3 0 2

Total # of neighbors = 1825
Ave neighs/atom = 3.5644531
Neighbor list builds = 0
Dangerous builds = 0
print           "${i} ${st} ${phi} ${pr} ${KEtot}" append ${logfile}
print           "${i} ${st} ${phi} ${pr} ${KEtot}" append compress_rate/compress_rate_0.0001/log_compress_rate_0.0001.txt
144 1490000 0.889967430912311 515.799796379004 0.495668155301954
print           "${i} ${st} ${phi} ${pr} ${KEtot}" append ${pressfile}
print           "${i} ${st} ${phi} ${pr} ${KEtot}" append compress_rate/compress_rate_0.0001/press_phi_compress_rate_0.0001.txt
144 1490000 0.889967430912311 515.799796379004 0.495668155301954
next            i
jump            SELF loop_compress
variable        i loop ${ncycle}
variable        i loop 150
# @before(压缩之前的我不关注)
change_box      all x scale ${scale} y scale ${scale} remap units box
change_box      all x scale 0.998 y scale ${scale} remap units box
change_box      all x scale 0.998 y scale 0.998 remap units box
Changing box ...
  orthogonal box = (4.346268 4.3204083 -0.1) to (30.154263 30.180123 0.1)
  orthogonal box = (4.346268 4.346268 -0.1) to (30.154263 30.154263 0.1)
velocity        all set 0.0 0.0 0.0       # 压缩后清零速度，避免把上一轮残余动量带进来
# @after
run             ${compress_loop}        # 每轮给足够松弛时间
run             10000        
Generated 0 of 1 mixed pair_coeff terms from geometric mixing rule
Per MPI rank memory allocation (min/avg/max) = 11.24 | 11.24 | 11.24 Mbytes
   Step        Atoms          Lx             Ly           v_phi          Press          KinEng        c_ke_rot   
   1490000         512   25.807995      25.807995      0.89353801     569.99647      0              0            
   1495000         512   25.807995      25.807995      0.89353801     558.69753      0.00063637455  0            
   1500000         512   25.807995      25.807995      0.89353801     558.47955      4.669701e-05   0            
Loop time of 0.191314 on 8 procs for 10000 steps with 512 atoms

Performance: 225807.379 tau/day, 52270.227 timesteps/s, 26.762 Matom-step/s
97.0% CPU use with 8 MPI tasks x 1 OpenMP threads

MPI task timing breakdown:
Section |  min time  |  avg time  |  max time  |%varavg| %total
---------------------------------------------------------------
Pair    | 0.052243   | 0.062779   | 0.074517   |   2.9 | 32.81
Neigh   | 0          | 0          | 0          |   0.0 |  0.00
Comm    | 0.047995   | 0.05074    | 0.054957   |   1.1 | 26.52
Output  | 0.001097   | 0.0014096  | 0.001717   |   0.5 |  0.74
Modify  | 0.01243    | 0.015686   | 0.018812   |   2.0 |  8.20
Other   |            | 0.0607     |            |       | 31.73

Nlocal:             64 ave          66 max          60 min
Histogram: 1 0 0 0 0 1 3 0 1 2
Nghost:             68 ave          73 max          63 min
Histogram: 1 1 0 2 0 0 0 2 0 2
Neighs:         228.75 ave         235 max         215 min
Histogram: 1 0 0 0 0 0 3 1 0 3

Total # of neighbors = 1830
Ave neighs/atom = 3.5742188
Neighbor list builds = 0
Dangerous builds = 0
print           "${i} ${st} ${phi} ${pr} ${KEtot}" append ${logfile}
print           "${i} ${st} ${phi} ${pr} ${KEtot}" append compress_rate/compress_rate_0.0001/log_compress_rate_0.0001.txt
145 1500000 0.893538008795458 558.4795507953 0.0239088688828464
print           "${i} ${st} ${phi} ${pr} ${KEtot}" append ${pressfile}
print           "${i} ${st} ${phi} ${pr} ${KEtot}" append compress_rate/compress_rate_0.0001/press_phi_compress_rate_0.0001.txt
145 1500000 0.893538008795458 558.4795507953 0.0239088688828464
next            i
jump            SELF loop_compress
variable        i loop ${ncycle}
variable        i loop 150
# @before(压缩之前的我不关注)
change_box      all x scale ${scale} y scale ${scale} remap units box
change_box      all x scale 0.998 y scale ${scale} remap units box
change_box      all x scale 0.998 y scale 0.998 remap units box
Changing box ...
  orthogonal box = (4.372076 4.346268 -0.1) to (30.128455 30.154263 0.1)
  orthogonal box = (4.372076 4.372076 -0.1) to (30.128455 30.128455 0.1)
velocity        all set 0.0 0.0 0.0       # 压缩后清零速度，避免把上一轮残余动量带进来
# @after
run             ${compress_loop}        # 每轮给足够松弛时间
run             10000        
Generated 0 of 1 mixed pair_coeff terms from geometric mixing rule
Per MPI rank memory allocation (min/avg/max) = 11.24 | 11.24 | 11.24 Mbytes
   Step        Atoms          Lx             Ly           v_phi          Press          KinEng        c_ke_rot   
   1500000         512   25.756379      25.756379      0.89712291     613.24752      0              0            
   1505000         512   25.756379      25.756379      0.89712291     603.19551      0.00012064414  0            
   1510000         512   25.756379      25.756379      0.89712291     603.01815      0.00022790684  0            
Loop time of 0.171737 on 8 procs for 10000 steps with 512 atoms

Performance: 251547.241 tau/day, 58228.528 timesteps/s, 29.813 Matom-step/s
98.9% CPU use with 8 MPI tasks x 1 OpenMP threads

MPI task timing breakdown:
Section |  min time  |  avg time  |  max time  |%varavg| %total
---------------------------------------------------------------
Pair    | 0.048171   | 0.05677    | 0.067562   |   2.2 | 33.06
Neigh   | 0          | 0          | 0          |   0.0 |  0.00
Comm    | 0.043397   | 0.046904   | 0.048727   |   0.8 | 27.31
Output  | 0.000974   | 0.001267   | 0.001587   |   0.6 |  0.74
Modify  | 0.011185   | 0.013876   | 0.017605   |   1.7 |  8.08
Other   |            | 0.05292    |            |       | 30.81

Nlocal:             64 ave          66 max          60 min
Histogram: 1 0 0 0 0 1 3 0 1 2
Nghost:          68.25 ave          73 max          63 min
Histogram: 1 1 1 0 1 0 0 0 2 2
Neighs:        229.125 ave         235 max         216 min
Histogram: 1 0 0 0 0 1 1 2 1 2

Total # of neighbors = 1833
Ave neighs/atom = 3.5800781
Neighbor list builds = 0
Dangerous builds = 0
print           "${i} ${st} ${phi} ${pr} ${KEtot}" append ${logfile}
print           "${i} ${st} ${phi} ${pr} ${KEtot}" append compress_rate/compress_rate_0.0001/log_compress_rate_0.0001.txt
146 1510000 0.897122911951617 603.018147065367 0.116688304396575
print           "${i} ${st} ${phi} ${pr} ${KEtot}" append ${pressfile}
print           "${i} ${st} ${phi} ${pr} ${KEtot}" append compress_rate/compress_rate_0.0001/press_phi_compress_rate_0.0001.txt
146 1510000 0.897122911951617 603.018147065367 0.116688304396575
next            i
jump            SELF loop_compress
variable        i loop ${ncycle}
variable        i loop 150
# @before(压缩之前的我不关注)
change_box      all x scale ${scale} y scale ${scale} remap units box
change_box      all x scale 0.998 y scale ${scale} remap units box
change_box      all x scale 0.998 y scale 0.998 remap units box
Changing box ...
  orthogonal box = (4.3978323 4.372076 -0.1) to (30.102698 30.128455 0.1)
  orthogonal box = (4.3978323 4.3978323 -0.1) to (30.102698 30.102698 0.1)
velocity        all set 0.0 0.0 0.0       # 压缩后清零速度，避免把上一轮残余动量带进来
# @after
run             ${compress_loop}        # 每轮给足够松弛时间
run             10000        
Generated 0 of 1 mixed pair_coeff terms from geometric mixing rule
Per MPI rank memory allocation (min/avg/max) = 11.24 | 11.24 | 11.24 Mbytes
   Step        Atoms          Lx             Ly           v_phi          Press          KinEng        c_ke_rot   
   1510000         512   25.704866      25.704866      0.9007222      658.41179      0              0            
   1515000         512   25.704866      25.704866      0.9007222      648.43399      0.0025409107   0            
   1520000         512   25.704866      25.704866      0.9007222      647.23153      0.0025572246   0            
Loop time of 0.146764 on 8 procs for 10000 steps with 512 atoms

Performance: 294349.612 tau/day, 68136.484 timesteps/s, 34.886 Matom-step/s
105.1% CPU use with 8 MPI tasks x 1 OpenMP threads

MPI task timing breakdown:
Section |  min time  |  avg time  |  max time  |%varavg| %total
---------------------------------------------------------------
Pair    | 0.049762   | 0.052545   | 0.054618   |   0.7 | 35.80
Neigh   | 0          | 0          | 0          |   0.0 |  0.00
Comm    | 0.03863    | 0.041342   | 0.044382   |   0.9 | 28.17
Output  | 0.000683   | 0.00091025 | 0.001198   |   0.0 |  0.62
Modify  | 0.011276   | 0.012567   | 0.013262   |   0.6 |  8.56
Other   |            | 0.0394     |            |       | 26.85

Nlocal:             64 ave          66 max          60 min
Histogram: 1 0 0 0 0 1 3 0 1 2
Nghost:          68.25 ave          73 max          62 min
Histogram: 1 1 1 0 0 1 0 0 2 2
Neighs:         229.25 ave         235 max         217 min
Histogram: 1 0 0 0 0 0 2 3 0 2

Total # of neighbors = 1834
Ave neighs/atom = 3.5820312
Neighbor list builds = 0
Dangerous builds = 0
print           "${i} ${st} ${phi} ${pr} ${KEtot}" append ${logfile}
print           "${i} ${st} ${phi} ${pr} ${KEtot}" append compress_rate/compress_rate_0.0001/log_compress_rate_0.0001.txt
147 1520000 0.900722197854242 647.231530410974 1.30929899258418
print           "${i} ${st} ${phi} ${pr} ${KEtot}" append ${pressfile}
print           "${i} ${st} ${phi} ${pr} ${KEtot}" append compress_rate/compress_rate_0.0001/press_phi_compress_rate_0.0001.txt
147 1520000 0.900722197854242 647.231530410974 1.30929899258418
next            i
jump            SELF loop_compress
variable        i loop ${ncycle}
variable        i loop 150
# @before(压缩之前的我不关注)
change_box      all x scale ${scale} y scale ${scale} remap units box
change_box      all x scale 0.998 y scale ${scale} remap units box
change_box      all x scale 0.998 y scale 0.998 remap units box
Changing box ...
  orthogonal box = (4.4235372 4.3978323 -0.1) to (30.076994 30.102698 0.1)
  orthogonal box = (4.4235372 4.4235372 -0.1) to (30.076994 30.076994 0.1)
velocity        all set 0.0 0.0 0.0       # 压缩后清零速度，避免把上一轮残余动量带进来
# @after
run             ${compress_loop}        # 每轮给足够松弛时间
run             10000        
Generated 0 of 1 mixed pair_coeff terms from geometric mixing rule
Per MPI rank memory allocation (min/avg/max) = 11.24 | 11.24 | 11.24 Mbytes
   Step        Atoms          Lx             Ly           v_phi          Press          KinEng        c_ke_rot   
   1520000         512   25.653456      25.653456      0.90433592     703.20197      0              0            
   1525000         512   25.653456      25.653456      0.90433592     689.27557      0.0065872547   0            
   1530000         512   25.653456      25.653456      0.90433592     685.49124      0.0051018234   0            
Loop time of 0.18298 on 8 procs for 10000 steps with 512 atoms

Performance: 236090.892 tau/day, 54650.670 timesteps/s, 27.981 Matom-step/s
100.3% CPU use with 8 MPI tasks x 1 OpenMP threads

MPI task timing breakdown:
Section |  min time  |  avg time  |  max time  |%varavg| %total
---------------------------------------------------------------
Pair    | 0.053751   | 0.05915    | 0.062566   |   1.3 | 32.33
Neigh   | 0          | 0          | 0          |   0.0 |  0.00
Comm    | 0.048754   | 0.050674   | 0.052711   |   0.5 | 27.69
Output  | 0.001005   | 0.0011926  | 0.001386   |   0.3 |  0.65
Modify  | 0.012712   | 0.013465   | 0.013844   |   0.3 |  7.36
Other   |            | 0.0585     |            |       | 31.97

Nlocal:             64 ave          66 max          61 min
Histogram: 1 0 0 0 2 0 2 0 1 2
Nghost:         68.625 ave          74 max          64 min
Histogram: 2 1 0 1 0 0 0 1 2 1
Neighs:        229.625 ave         236 max         220 min
Histogram: 1 0 0 1 0 2 1 1 0 2

Total # of neighbors = 1837
Ave neighs/atom = 3.5878906
Neighbor list builds = 0
Dangerous builds = 0
print           "${i} ${st} ${phi} ${pr} ${KEtot}" append ${logfile}
print           "${i} ${st} ${phi} ${pr} ${KEtot}" append compress_rate/compress_rate_0.0001/log_compress_rate_0.0001.txt
148 1530000 0.904335924207375 685.491240612374 2.61213357723678
print           "${i} ${st} ${phi} ${pr} ${KEtot}" append ${pressfile}
print           "${i} ${st} ${phi} ${pr} ${KEtot}" append compress_rate/compress_rate_0.0001/press_phi_compress_rate_0.0001.txt
148 1530000 0.904335924207375 685.491240612374 2.61213357723678
next            i
jump            SELF loop_compress
variable        i loop ${ncycle}
variable        i loop 150
# @before(压缩之前的我不关注)
change_box      all x scale ${scale} y scale ${scale} remap units box
change_box      all x scale 0.998 y scale ${scale} remap units box
change_box      all x scale 0.998 y scale 0.998 remap units box
Changing box ...
  orthogonal box = (4.4491907 4.4235372 -0.1) to (30.05134 30.076994 0.1)
  orthogonal box = (4.4491907 4.4491907 -0.1) to (30.05134 30.05134 0.1)
velocity        all set 0.0 0.0 0.0       # 压缩后清零速度，避免把上一轮残余动量带进来
# @after
run             ${compress_loop}        # 每轮给足够松弛时间
run             10000        
Generated 0 of 1 mixed pair_coeff terms from geometric mixing rule
Per MPI rank memory allocation (min/avg/max) = 11.24 | 11.24 | 11.24 Mbytes
   Step        Atoms          Lx             Ly           v_phi          Press          KinEng        c_ke_rot   
   1530000         512   25.602149      25.602149      0.90796415     741.08624      0              0            
   1535000         512   25.602149      25.602149      0.90796415     728.19059      0.016659408    0            
   1540000         512   25.602149      25.602149      0.90796415     713.9066       0.15596973     0            
Loop time of 0.176595 on 8 procs for 10000 steps with 512 atoms

Performance: 244627.191 tau/day, 56626.665 timesteps/s, 28.993 Matom-step/s
95.1% CPU use with 8 MPI tasks x 1 OpenMP threads

MPI task timing breakdown:
Section |  min time  |  avg time  |  max time  |%varavg| %total
---------------------------------------------------------------
Pair    | 0.050774   | 0.059762   | 0.076484   |   3.4 | 33.84
Neigh   | 1.5e-05    | 1.7375e-05 | 2e-05      |   0.0 |  0.01
Comm    | 0.043273   | 0.046294   | 0.0498     |   1.0 | 26.21
Output  | 0.000995   | 0.0012914  | 0.001561   |   0.5 |  0.73
Modify  | 0.011762   | 0.014756   | 0.019976   |   2.5 |  8.36
Other   |            | 0.05447    |            |       | 30.85

Nlocal:             64 ave          66 max          63 min
Histogram: 2 0 0 5 0 0 0 0 0 1
Nghost:             68 ave          72 max          63 min
Histogram: 1 1 1 0 1 0 1 0 0 3
Neighs:            230 ave         233 max         226 min
Histogram: 1 0 1 0 1 1 0 2 1 1

Total # of neighbors = 1840
Ave neighs/atom = 3.59375
Neighbor list builds = 1
Dangerous builds = 0
print           "${i} ${st} ${phi} ${pr} ${KEtot}" append ${logfile}
print           "${i} ${st} ${phi} ${pr} ${KEtot}" append compress_rate/compress_rate_0.0001/log_compress_rate_0.0001.txt
149 1540000 0.907964148946565 713.9065965161 79.8565002502742
print           "${i} ${st} ${phi} ${pr} ${KEtot}" append ${pressfile}
print           "${i} ${st} ${phi} ${pr} ${KEtot}" append compress_rate/compress_rate_0.0001/press_phi_compress_rate_0.0001.txt
149 1540000 0.907964148946565 713.9065965161 79.8565002502742
next            i
jump            SELF loop_compress
variable        i loop ${ncycle}
variable        i loop 150
# @before(压缩之前的我不关注)
change_box      all x scale ${scale} y scale ${scale} remap units box
change_box      all x scale 0.998 y scale ${scale} remap units box
change_box      all x scale 0.998 y scale 0.998 remap units box
Changing box ...
  orthogonal box = (4.4747928 4.4491907 -0.1) to (30.025738 30.05134 0.1)
  orthogonal box = (4.4747928 4.4747928 -0.1) to (30.025738 30.025738 0.1)
velocity        all set 0.0 0.0 0.0       # 压缩后清零速度，避免把上一轮残余动量带进来
# @after
run             ${compress_loop}        # 每轮给足够松弛时间
run             10000        
Generated 0 of 1 mixed pair_coeff terms from geometric mixing rule
Per MPI rank memory allocation (min/avg/max) = 11.24 | 11.24 | 11.24 Mbytes
   Step        Atoms          Lx             Ly           v_phi          Press          KinEng        c_ke_rot   
   1540000         512   25.550945      25.550945      0.91160693     770.04355      0              0            
   1545000         512   25.550945      25.550945      0.91160693     757.25879      0.059823365    0            
   1550000         512   25.550945      25.550945      0.91160693     753.71675      0.032173114    0            
Loop time of 0.173793 on 8 procs for 10000 steps with 512 atoms

Performance: 248571.934 tau/day, 57539.800 timesteps/s, 29.460 Matom-step/s
95.5% CPU use with 8 MPI tasks x 1 OpenMP threads

MPI task timing breakdown:
Section |  min time  |  avg time  |  max time  |%varavg| %total
---------------------------------------------------------------
Pair    | 0.052514   | 0.056402   | 0.065922   |   1.8 | 32.45
Neigh   | 3.4e-05    | 3.6125e-05 | 3.8e-05    |   0.0 |  0.02
Comm    | 0.045598   | 0.047178   | 0.049613   |   0.7 | 27.15
Output  | 0.000715   | 0.00088175 | 0.001077   |   0.0 |  0.51
Modify  | 0.011596   | 0.013442   | 0.015842   |   1.1 |  7.73
Other   |            | 0.05585    |            |       | 32.14

Nlocal:             64 ave          65 max          63 min
Histogram: 2 0 0 0 0 4 0 0 0 2
Nghost:             68 ave          73 max          64 min
Histogram: 1 2 1 0 0 1 1 0 1 1
Neighs:        230.125 ave         235 max         224 min
Histogram: 1 0 1 0 1 1 2 0 0 2

Total # of neighbors = 1841
Ave neighs/atom = 3.5957031
Neighbor list builds = 2
Dangerous builds = 0
print           "${i} ${st} ${phi} ${pr} ${KEtot}" append ${logfile}
print           "${i} ${st} ${phi} ${pr} ${KEtot}" append compress_rate/compress_rate_0.0001/log_compress_rate_0.0001.txt
150 1550000 0.911606930239803 753.716752032344 16.4726345952954
print           "${i} ${st} ${phi} ${pr} ${KEtot}" append ${pressfile}
print           "${i} ${st} ${phi} ${pr} ${KEtot}" append compress_rate/compress_rate_0.0001/press_phi_compress_rate_0.0001.txt
150 1550000 0.911606930239803 753.716752032344 16.4726345952954
next            i
jump            SELF loop_compress
# --------------------------------------------------------------------------------




Total wall time: 0:00:17
